     Program PWSCF v.6.3MaX starts on 21Nov2019 at 10:34:25

     R & G space division:  proc/nbgrp/npool/nimage =      16
     Waiting for input...
     Reading input from standard input

     Current dimensions of program PWSCF are:
     Max number of different atomic species (ntypx) = 10
     Max number of k-points (npk) =  40000
     Max angular momentum in pseudopotentials (lmaxx) =  3
     Message from routine iosys:
     minimal I/O required, wf_collect reset to FALSE

     IMPORTANT: XC functional enforced from input :
     Exchange-correlation      = VDW-DF ( 1  4  4  0 1 0)
     Any further DFT definition will be discarded
     Please, verify this is what you really want

     bravais-lattice index     =            0
     lattice parameter (alat)  =      14.8058  a.u.
     unit-cell volume          =   10282.4791 (a.u.)^3
     number of atoms/cell      =           66
     number of atomic types    =            3
     number of electrons       =      1056.00
     number of Kohn-Sham states=          634
     kinetic-energy cutoff     =      50.0000  Ry
     charge density cutoff     =     600.0000  Ry
     convergence threshold     =      1.0E-08
     mixing beta               =       0.3000
     number of iterations used =            8  plain     mixing
     Exchange-correlation      = VDW-DF ( 1  4  4  0 1 0)

     celldm(1)=  14.805786  celldm(2)=   0.000000  celldm(3)=   0.000000
     celldm(4)=   0.000000  celldm(5)=   0.000000  celldm(6)=   0.000000

     crystal axes: (cart. coord. in units of alat)
               a(1) = (   1.000000   0.000000   0.000000 )
               a(2) = (   0.500000   0.866025   0.000000 )
               a(3) = (   0.000000   0.000000   3.658245 )

     reciprocal axes: (cart. coord. in units 2 pi/alat)
               b(1) = (  1.000000 -0.577350  0.000000 )
               b(2) = (  0.000000  1.154701  0.000000 )
               b(3) = (  0.000000  0.000000  0.273355 )

     PseudoPot. # 1 for Cu read from file:
     /deac/thonhauserGrp/chakrad/calculations/atomandmolecule-qe6.2.1-i2012-C6modif/all_pbe_UPF_v1.5/cu_pbe_v1.2.uspp.F.UPF
     MD5 check sum: 6e991ff952a84172a2a52a1c1e996048
     Pseudo is Ultrasoft + core correction, Zval = 19.0
     Generated by new atomic code, or converted to UPF format
     Using radial grid of  867 points,  6 beta functions with:
                l(1) =   0
                l(2) =   0
                l(3) =   1
                l(4) =   1
                l(5) =   2
                l(6) =   2
     Q(r) pseudized with  8 coefficients,  rinner =    1.150   1.150   1.150
                                                       1.150   1.150

     PseudoPot. # 2 for C  read from file:
     /deac/thonhauserGrp/chakrad/calculations/atomandmolecule-qe6.2.1-i2012-C6modif/all_pbe_UPF_v1.5/c_pbe_v1.2.uspp.F.UPF
     MD5 check sum: d1aef80898a10debaa0f26306b886e00
     Pseudo is Ultrasoft + core correction, Zval =  4.0
     Generated by new atomic code, or converted to UPF format
     Using radial grid of  721 points,  4 beta functions with:
                l(1) =   0
                l(2) =   0
                l(3) =   1
                l(4) =   1
     Q(r) pseudized with  8 coefficients,  rinner =    1.100   1.100   1.100

     PseudoPot. # 3 for H  read from file:
     /deac/thonhauserGrp/chakrad/calculations/atomandmolecule-qe6.2.1-i2012-C6modif/all_pbe_UPF_v1.5/h_pbe_v1.4.uspp.F.UPF
     MD5 check sum: 761ae9a214b05c3daf00ab9f6b793d6f
     Pseudo is Ultrasoft, Zval =  1.0
     Generated by new atomic code, or converted to UPF format
     Using radial grid of  615 points,  2 beta functions with:
                l(1) =   0
                l(2) =   0
     Q(r) pseudized with  8 coefficients,  rinner =    0.700

     vdW kernel table read from file vdW_kernel_table
     MD5 check sum: cc9485f6209b1096fbef62427c856dab

     atomic species   valence    mass     pseudopotential
        Cu            19.00     1.00000     Cu( 1.00)
        C              4.00     1.00000     C ( 1.00)
        H              1.00     1.00000     H ( 1.00)

     No symmetry found

   Cartesian axes

     site n.     atom                  positions (alat units)
         1           Cu  tau(   1) = (   0.1666667   0.0962250   0.2552686  )
         2           Cu  tau(   2) = (   0.5000000   0.0962250   0.2552686  )
         3           Cu  tau(   3) = (   0.8333333   0.0962250   0.2552686  )
         4           Cu  tau(   4) = (   0.3333333   0.3849002   0.2552686  )
         5           Cu  tau(   5) = (   0.6666667   0.3849002   0.2552686  )
         6           Cu  tau(   6) = (   1.0000000   0.3849002   0.2552686  )
         7           Cu  tau(   7) = (   0.5000000   0.6735753   0.2552686  )
         8           Cu  tau(   8) = (   0.8333333   0.6735753   0.2552686  )
         9           Cu  tau(   9) = (   1.1666667   0.6735753   0.2552686  )
        10           Cu  tau(  10) = (   0.0000000   0.1924501   0.5274341  )
        11           Cu  tau(  11) = (   0.3333333   0.1924501   0.5274341  )
        12           Cu  tau(  12) = (   0.6666667   0.1924501   0.5274341  )
        13           Cu  tau(  13) = (   0.1666667   0.4811252   0.5274341  )
        14           Cu  tau(  14) = (   0.5000000   0.4811252   0.5274341  )
        15           Cu  tau(  15) = (   0.8333333   0.4811252   0.5274341  )
        16           Cu  tau(  16) = (   0.3333333   0.7698004   0.5274341  )
        17           Cu  tau(  17) = (   0.6666667   0.7698004   0.5274341  )
        18           Cu  tau(  18) = (   1.0000000   0.7698004   0.5274341  )
        19           Cu  tau(  19) = (   0.0000000   0.0000000   0.7995997  )
        20           Cu  tau(  20) = (   0.3333333   0.0000000   0.7995997  )
        21           Cu  tau(  21) = (   0.6666667   0.0000000   0.7995997  )
        22           Cu  tau(  22) = (   0.1666667   0.2886751   0.7995997  )
        23           Cu  tau(  23) = (   0.5000000   0.2886751   0.7995997  )
        24           Cu  tau(  24) = (   0.8333333   0.2886751   0.7995997  )
        25           Cu  tau(  25) = (   0.3333333   0.5773503   0.7995997  )
        26           Cu  tau(  26) = (   0.6666667   0.5773503   0.7995997  )
        27           Cu  tau(  27) = (   1.0000000   0.5773503   0.7995997  )
        28           Cu  tau(  28) = (   0.1666659   0.0962246   1.0691130  )
        29           Cu  tau(  29) = (   0.5000000   0.0962241   1.0691104  )
        30           Cu  tau(  30) = (   0.8333341   0.0962246   1.0691130  )
        31           Cu  tau(  31) = (   0.3333325   0.3849006   1.0691104  )
        32           Cu  tau(  32) = (   0.6666675   0.3849006   1.0691104  )
        33           Cu  tau(  33) = (   1.0000000   0.3849003   1.0691143  )
        34           Cu  tau(  34) = (   0.5000000   0.6735762   1.0691130  )
        35           Cu  tau(  35) = (   0.8333334   0.6735753   1.0691143  )
        36           Cu  tau(  36) = (   1.1666666   0.6735753   1.0691143  )
        37           Cu  tau(  37) = (   0.0000000   0.1924486   1.3387540  )
        38           Cu  tau(  38) = (   0.3333330   0.1924499   1.3387465  )
        39           Cu  tau(  39) = (   0.6666670   0.1924499   1.3387465  )
        40           Cu  tau(  40) = (   0.1666676   0.4811247   1.3387504  )
        41           Cu  tau(  41) = (   0.5000000   0.4811256   1.3387465  )
        42           Cu  tau(  42) = (   0.8333324   0.4811247   1.3387504  )
        43           Cu  tau(  43) = (   0.3333346   0.7698011   1.3387540  )
        44           Cu  tau(  44) = (   0.6666654   0.7698011   1.3387540  )
        45           Cu  tau(  45) = (   1.0000000   0.7698014   1.3387504  )
        46           Cu  tau(  46) = (   0.0000000   0.0000000   1.6083750  )
        47           Cu  tau(  47) = (   0.3333333   0.0000005   1.6083624  )
        48           Cu  tau(  48) = (   0.6666667   0.0000005   1.6083624  )
        49           Cu  tau(  49) = (   0.1666671   0.2886748   1.6083624  )
        50           Cu  tau(  50) = (   0.5000000   0.2886751   1.6083553  )
        51           Cu  tau(  51) = (   0.8333329   0.2886748   1.6083624  )
        52           Cu  tau(  52) = (   0.3333338   0.5773500   1.6083624  )
        53           Cu  tau(  53) = (   0.6666662   0.5773500   1.6083624  )
        54           Cu  tau(  54) = (   1.0000000   0.5773503   1.6083570  )
        55           C   tau(  55) = (   0.6567407   0.3959883   2.0231294  )
        56           C   tau(  56) = (   0.5046394   0.3028152   2.0231293  )
        57           C   tau(  57) = (   0.3478975   0.3879497   2.0231294  )
        58           C   tau(  58) = (   0.3432593   0.5662630   2.0231294  )
        59           C   tau(  59) = (   0.4953606   0.6594361   2.0231293  )
        60           C   tau(  60) = (   0.6521025   0.5743016   2.0231294  )
        61           H   tau(  61) = (   0.7789959   0.3295665   2.0232076  )
        62           H   tau(  62) = (   0.5082587   0.1637263   2.0232077  )
        63           H   tau(  63) = (   0.2292624   0.3152577   2.0232076  )
        64           H   tau(  64) = (   0.2210041   0.6326847   2.0232076  )
        65           H   tau(  65) = (   0.4917413   0.7985249   2.0232077  )
        66           H   tau(  66) = (   0.7707376   0.6469936   2.0232076  )

     number of k points=    10  gaussian smearing, width (Ry)=  0.0200
                       cart. coord. in units 2pi/alat
        k(    1) = (   0.0000000   0.0000000   0.0000000), wk =   0.1250000
        k(    2) = (   0.0000000   0.2886751   0.0000000), wk =   0.2500000
        k(    3) = (   0.0000000  -0.5773503   0.0000000), wk =   0.1250000
        k(    4) = (   0.2500000  -0.7216878   0.0000000), wk =   0.2500000
        k(    5) = (  -0.2500000   0.1443376   0.0000000), wk =   0.2500000
        k(    6) = (   0.2500000   0.1443376   0.0000000), wk =   0.2500000
        k(    7) = (   0.5000000  -0.2886751   0.0000000), wk =   0.1250000
        k(    8) = (  -0.5000000  -0.2886751   0.0000000), wk =   0.1250000
        k(    9) = (  -0.2500000  -0.7216878   0.0000000), wk =   0.2500000
        k(   10) = (  -0.5000000  -0.5773503   0.0000000), wk =   0.2500000

     Initial potential from superposition of free atoms
     Check: negative starting charge=   -0.000772

     starting charge 1001.99960, renormalised to 1056.00000

     negative rho (up, down):  8.133E-04 0.000E+00

     %%%%%%%%%%%%%%%%%%%%%%%%%%%%%%%%%%%%%%%%%%%%%%%%%%%%%%%%%%%%%%%%%%%%%%%%
     %                                                                      %
     % You are using vdW-DF, which was implemented by the Thonhauser group. %
     % Please cite the following two papers that made this development      %
     % possible and the two reviews that describe the various versions:     %
     %                                                                      %
     %   T. Thonhauser et al., PRL 115, 136402 (2015).                      %
     %   T. Thonhauser et al., PRB 76, 125112 (2007).                       %
     %   K. Berland et al., Rep. Prog. Phys. 78, 066501 (2015).             %
     %   D.C. Langreth et al., J. Phys.: Condens. Matter 21, 084203 (2009). %
     %                                                                      %
     %                                                                      %
     % If you are calculating the stress with vdW-DF, please also cite:     %
     %                                                                      %
     %   R. Sabatini et al., J. Phys.: Condens. Matter 24, 424209 (2012).   %
     %                                                                      %
     %%%%%%%%%%%%%%%%%%%%%%%%%%%%%%%%%%%%%%%%%%%%%%%%%%%%%%%%%%%%%%%%%%%%%%%%

     Starting wfcs are  732 randomized atomic wfcs

     Self-consistent Calculation

     iteration #  1     ecut=    50.00 Ry     beta= 0.30
     Davidson diagonalization with overlap
     ethr =  1.00E-02,  avg # of iterations =  6.0

[...]

     total energy              =  -18898.05613915 Ry
     Harris-Foulkes estimate   =  -22008.47773648 Ry
     estimated scf accuracy    <    6147.33453044 Ry

     iteration #  2     ecut=    50.00 Ry     beta= 0.30
     Davidson diagonalization with overlap
     c_bands:  4 eigenvalues not converged
     ethr =  1.00E-02,  avg # of iterations = 18.9

[...]

     total energy              =  -21903.76530988 Ry
     Harris-Foulkes estimate   =  -21903.76530988 Ry
     estimated scf accuracy    <       0.00000001 Ry

     iteration # 38     ecut=    50.00 Ry     beta= 0.30
     Davidson diagonalization with overlap
     ethr =  1.05E-12,  avg # of iterations =  2.0

     negative rho (up, down):  2.530E-03 0.000E+00

     End of self-consistent calculation

          k = 0.0000 0.0000 0.0000 ( 61453 PWs)   bands (ev):

  -107.7924-107.7891-107.7847-107.7847-107.7844-107.7839-107.7839-107.7837
  -107.7825-107.7811-107.7811-107.7807-107.7807-107.7799-107.7799-107.7796
  -107.7793-107.7792-107.7756-107.7756-107.7753-107.7740-107.7740-107.7732
  -107.7712-107.7712-107.7702-107.7701-107.7666-107.7652-107.7652-107.7651
  -107.7651-107.7640-107.7628-107.7615-107.5719-107.5686-107.5686-107.5662
  -107.5641-107.5641-107.5586-107.5564-107.5564-107.5309-107.5260-107.5260
  -107.5260-107.5256-107.5256-107.5256-107.5232-107.5232 -65.2454 -65.2335
   -65.2319 -65.2319 -65.2313 -65.2313 -65.2304 -65.2249 -65.2246 -65.2246
   -65.2237 -65.2237 -65.2229 -65.2229 -65.2229 -65.2202 -65.2199 -65.2199
   -65.2195 -65.2181 -65.2132 -65.2132 -65.2124 -65.2112 -65.2108 -65.2108
   -65.2095 -65.2094 -65.2094 -65.2089 -65.2089 -65.2078 -65.2078 -65.2077
   -65.2056 -65.2055 -65.2055 -65.2049 -65.2003 -65.2003 -65.2000 -65.1992
   -65.1990 -65.1990 -65.1984 -65.1984 -65.1949 -65.1948 -65.1948 -65.1922
   -65.1920 -65.1916 -65.1916 -65.1916 -65.1916 -65.1910 -65.1872 -65.1846
   -65.1846 -65.1837 -65.1837 -65.1832 -65.1829 -65.1829 -65.1821 -65.1820
   -65.1819 -65.1819 -65.1805 -65.1798 -65.1798 -65.1796 -65.1796 -65.1770
   -65.1770 -65.1738 -65.1736 -65.1736 -65.1736 -65.1732 -65.1732 -65.1724
   -65.1724 -65.1721 -65.1714 -65.1714 -65.1714 -65.1691 -65.1671 -65.1671
   -65.1668 -65.1660 -65.1660 -65.1660 -65.1655 -65.1655 -65.1600 -65.1600
   -65.1590 -65.1590 -65.1588 -65.1582 -65.1579 -65.1579 -65.1544 -65.1544
   -65.1476 -65.1476 -65.0241 -65.0241 -65.0236 -65.0193 -65.0189 -65.0189
   -65.0181 -65.0156 -65.0156 -65.0115 -64.9884 -64.9855 -64.9854 -64.9854
   -64.9852 -64.9852 -64.9852 -64.9849 -64.9849 -64.9832 -64.9832 -64.9826
   -64.9826 -64.9823 -64.9820 -64.9810 -64.9709 -64.9709 -64.9513 -64.9499
   -64.9499 -64.9498 -64.9498 -64.9498 -64.9493 -64.9485 -64.9484 -64.9445
   -64.9424 -64.9424 -64.9376 -64.9376 -64.9358 -64.9338 -64.9337 -64.9029
   -64.8983 -64.8983 -64.8982 -64.8978 -64.8978 -64.8978 -64.8955 -64.8955
   -12.8141 -10.0630 -10.0627  -6.4644  -6.4639  -4.5376  -4.0565  -3.4387
    -2.9331  -2.5545  -2.4947  -1.8987  -1.8986  -1.3922  -1.0931  -1.0909
    -1.0909  -1.0906  -1.0906  -1.0906  -0.8058  -0.6884  -0.6884  -0.6874
    -0.6874  -0.6873  -0.6692  -0.4311  -0.1906  -0.1902  -0.1902  -0.1886
    -0.1885  -0.1877  -0.1709   0.0377   0.0380   0.2593   0.2593   0.2632
     0.2647   0.2647   0.2686   0.6089   0.6089   0.6130   0.6134   0.6134
     0.6165   0.7389   0.7389   0.7397   0.7402   0.7402   0.7411   0.7882
     0.7882   0.7891   0.7891   0.7892   0.7902   0.8187   0.8187   0.8326
     0.8326   0.8419   0.8420   0.9378   0.9379   0.9474   0.9474   0.9625
     0.9625   0.9642   0.9658   0.9658   0.9671   0.9775   0.9775   0.9786
     0.9787   1.0222   1.0222   1.0709   1.0709   1.1700   1.1700   1.1749
     1.1749   1.1776   1.1781   1.1781   1.1800   1.2154   1.2154   1.4046
     1.4046   1.4143   1.4143   1.4148   1.4165   1.5472   1.5472   1.5555
     1.5555   1.5595   1.5595   1.5688   1.5688   1.5695   1.5706   1.6098
     1.6099   1.6102   1.6282   1.6730   1.6730   1.6824   1.6824   1.6831
     1.6832   1.6949   1.6950   1.7226   1.7226   1.7432   1.7432   1.7514
     1.7592   1.7592   1.7679   1.7679   1.7680   1.7696   1.8080   1.8081
     1.8092   1.8092   1.8202   1.8206   1.8206   1.8212   1.8409   1.8410
     1.8410   1.8419   1.8421   1.8421   1.8479   1.8479   1.8561   1.8561
     1.8617   1.9497   1.9498   1.9651   1.9672   1.9672   1.9701   1.9705
     1.9735   1.9873   1.9873   2.0022   2.0022   2.0191   2.0193   2.0410
     2.0410   2.0419   2.0419   2.0420   2.0421   2.0421   2.0428   2.0435
     2.0435   2.2288   2.2288   2.2292   2.2339   2.2749   2.2749   2.2990
     2.2992   2.2992   2.3003   2.3004   2.3004   2.3563   2.3563   2.3593
     2.3612   2.3781   2.3781   2.3812   2.3812   2.4039   2.4039   2.4052
     2.4052   2.4535   2.4699   2.4699   2.4981   2.4981   2.4996   2.4996
     2.5013   2.5071   2.5190   2.5190   2.5285   2.5285   2.5296   2.5304
     2.5305   2.5309   2.5311   2.5311   2.5381   2.5381   2.6045   2.6045
     2.6702   2.6704   2.6704   2.6710   2.6712   2.6712   2.7253   2.7262
     2.7262   2.7280   2.7306   2.7306   2.7306   2.7312   2.7313   2.7313
     2.7366   2.7366   2.7905   2.7905   2.7980   2.7984   2.7984   2.7993
     2.7993   2.7993   2.8102   2.8103   2.8103   2.8108   2.8110   2.8110
     2.8335   2.8336   2.8336   2.8340   2.8342   2.8342   2.8573   2.8573
[...]
     3.0733   3.0745   3.0746   3.0746   3.9060   3.9963   3.9963   4.0001
     4.0335   4.0512   4.0512   4.5160   5.4143   5.4143   5.4293   5.4618
     5.4953   5.4953   6.9437   6.9438   7.0270   7.1904   7.3030   7.3128
     7.3128   7.4417   7.4418   7.8685   7.8685   7.8688   7.8690   7.8851
     7.8851   8.1831   8.2600   8.2601   8.2824   8.2824   8.4635   8.6700
     8.6729   8.7971   8.8867   8.8868   8.9275   8.9286   9.0180   9.0959
     9.0959   9.3088   9.4623   9.5519   9.5519   9.5602   9.5602   9.8357
     9.8359   9.8813   9.9343   9.9369  10.5573  10.5896  10.6886  10.6886
    10.7290  10.7290  10.8790  10.8791  10.9262  10.9263  10.9832  11.0446
    11.0446  11.1288  11.2258  11.3380  11.3380  11.3771  11.3771  11.3999
    11.5088  11.6366  11.6366  11.7947  11.8386  11.8386  11.8762  11.8762
    11.9278  11.9437  11.9437  11.9686  11.9686  12.0349  12.1362  12.2315
    12.2315  12.2598  12.3100  12.3628  12.3628  12.4935  12.4935  12.7525
    12.8770  12.8827  12.8828  13.0171  13.0172  13.0356  13.0453  13.0624
    13.1451  13.1563

[...]

          k =-0.2500 0.1443 0.0000 ( 61417 PWs)   bands (ev):

[...]

          k = 0.5000-0.2887 0.0000 ( 61408 PWs)   bands (ev):

[...]

          k =-0.5000-0.5774 0.0000 ( 61343 PWs)   bands (ev):

  -107.7919-107.7886-107.7869-107.7863-107.7836-107.7834-107.7831-107.7824
  -107.7822-107.7817-107.7812-107.7810-107.7807-107.7801-107.7799-107.7794
  -107.7789-107.7785-107.7772-107.7765-107.7749-107.7736-107.7735-107.7729
  -107.7715-107.7712-107.7702-107.7692-107.7676-107.7669-107.7653-107.7643
  -107.7640-107.7635-107.7633-107.7615-107.5715-107.5690-107.5688-107.5664
  -107.5640-107.5638-107.5587-107.5564-107.5563-107.5296-107.5282-107.5280
  -107.5253-107.5251-107.5242-107.5241-107.5239-107.5236 -65.2414 -65.2373
   -65.2361 -65.2356 -65.2348 -65.2343 -65.2337 -65.2323 -65.2309 -65.2291
   -65.2287 -65.2278 -65.2251 -65.2236 -65.2229 -65.2224 -65.2223 -65.2199
   -65.2182 -65.2164 -65.2162 -65.2160 -65.2155 -65.2143 -65.2138 -65.2132
   -65.2123 -65.2118 -65.2096 -65.2087 -65.2053 -65.2038 -65.2035 -65.2025
   -65.2004 -65.2000 -65.1995 -65.1989 -65.1986 -65.1964 -65.1954 -65.1951
   -65.1946 -65.1937 -65.1930 -65.1926 -65.1913 -65.1896 -65.1892 -65.1888
   -65.1886 -65.1884 -65.1882 -65.1872 -65.1867 -65.1862 -65.1855 -65.1852
   -65.1845 -65.1834 -65.1830 -65.1829 -65.1827 -65.1821 -65.1807 -65.1798
   -65.1795 -65.1792 -65.1787 -65.1786 -65.1779 -65.1776 -65.1772 -65.1769
   -65.1767 -65.1760 -65.1755 -65.1748 -65.1745 -65.1738 -65.1736 -65.1727
   -65.1718 -65.1717 -65.1716 -65.1713 -65.1710 -65.1708 -65.1708 -65.1704
   -65.1689 -65.1683 -65.1680 -65.1664 -65.1658 -65.1655 -65.1652 -65.1649
   -65.1644 -65.1641 -65.1621 -65.1612 -65.1610 -65.1601 -65.1566 -65.1546
   -65.1545 -65.1508 -65.0351 -65.0333 -65.0311 -65.0238 -65.0210 -65.0183
   -65.0020 -65.0007 -64.9986 -64.9985 -64.9981 -64.9961 -64.9957 -64.9941
   -64.9909 -64.9902 -64.9891 -64.9885 -64.9853 -64.9851 -64.9835 -64.9797
   -64.9777 -64.9738 -64.9657 -64.9637 -64.9628 -64.9627 -64.9571 -64.9570
   -64.9562 -64.9561 -64.9511 -64.9496 -64.9486 -64.9485 -64.9450 -64.9450
   -64.9447 -64.9423 -64.9422 -64.9409 -64.9359 -64.9338 -64.9336 -64.9016
   -64.9003 -64.9001 -64.8976 -64.8973 -64.8966 -64.8965 -64.8961 -64.8959
   -12.8125 -10.0683 -10.0659  -6.4669  -6.4586  -4.4838  -3.4232  -2.8776
    -2.8212  -2.6174  -2.6169  -2.5616  -2.0536  -2.0491  -1.9841  -1.9307
    -1.8934  -1.2144  -1.1871  -0.9050  -0.6722  -0.6059  -0.6040  -0.2574
    -0.2559  -0.2202  -0.1903  -0.0206  -0.0152  -0.0148  -0.0074   0.0209
     0.1581   0.1598   0.1798   0.1801   0.1964   0.2460   0.2573   0.2575
     0.2754   0.3741   0.3768   0.3793   0.3797   0.4480   0.4570   0.5163
     0.5185   0.5295   0.5407   0.5695   0.5696   0.5717   0.5896   0.5913
     0.6523   0.6534   0.6844   0.6845   0.7147   0.7147   0.7422   0.7499
     0.7509   0.8140   0.8145   0.8441   0.8644   0.8788   0.8794   0.9492
     0.9544   1.0048   1.0242   1.0251   1.0497   1.0506   1.1103   1.1185
     1.1202   1.1362   1.1365   1.1468   1.1878   1.2137   1.2148   1.2581
     1.2590   1.2826   1.2857   1.2881   1.2907   1.3083   1.3086   1.3629
     1.3655   1.3691   1.3705   1.3754   1.3854   1.4046   1.4061   1.4156
     1.4183   1.4429   1.4464   1.4649   1.4680   1.4699   1.4881   1.5165
     1.5549   1.5588   1.5624   1.5646   1.5655   1.5923   1.6041   1.6139
     1.6163   1.6487   1.6533   1.6562   1.6580   1.6655   1.6878   1.7064
     1.7093   1.7192   1.7223   1.7242   1.7428   1.7600   1.7641   1.7655
     1.7674   1.7837   1.7889   1.8028   1.8037   1.8175   1.8227   1.8288
     1.8307   1.8519   1.8695   1.8766   1.8859   1.8911   1.8984   1.9033
     1.9068   1.9114   1.9217   1.9223   1.9268   1.9341   1.9363   1.9378
     1.9587   1.9597   1.9687   1.9812   1.9915   2.0033   2.0100   2.0133
     2.0258   2.0268   2.0287   2.0301   2.0328   2.0351   2.0370   2.0424
     2.0478   2.0651   2.1090   2.1120   2.1701   2.1703   2.1707   2.1770
     2.1812   2.1857   2.2041   2.2047   2.2282   2.2388   2.2406   2.2506
     2.2699   2.2711   2.3084   2.3100   2.3126   2.3415   2.3428   2.3437
     2.3444   2.3459   2.3477   2.3497   2.3539   2.3628   2.3808   2.3818
     2.4251   2.4279   2.4311   2.4320   2.4385   2.4440   2.4524   2.4751
     2.4803   2.4845   2.4974   2.5183   2.5201   2.5397   2.5475   2.5483
     2.5597   2.5636   2.5923   2.5997   2.6043   2.6091   2.6336   2.6359
     2.6561   2.6609   2.6612   2.6798   2.6830   2.7024   2.7053   2.7075
     2.7091   2.7141   2.7225   2.7239   2.7295   2.7366   2.7466   2.7645
     2.7962   2.7985   2.7998   2.8075   2.8504   2.8512   2.8639   2.8692
     2.8955   2.9071   2.9091   2.9153   2.9162   2.9249   2.9303   2.9592
[...]
     4.2356   4.2608   4.3355   4.3366   4.3513   4.6110   4.7128   4.7309
     4.7421   4.7427   4.8967   5.1842   5.2122   5.2141   5.6630   5.6966
     5.7279   5.8149   5.9514   5.9624   5.9633   6.0968   6.1102   6.1836
     6.2654   6.6255   6.6959   6.7044   6.8712   6.9932   6.9981   7.0779
     7.0867   7.1977   7.2372   7.4122   7.6331   7.7543   7.9318   7.9719
     8.4607   8.5187   8.5208   8.6236   8.7461   8.9646   9.1520   9.1680
     9.2230   9.3240   9.3508   9.4864   9.5088   9.6341   9.6973   9.7317
     9.8083   9.9444  10.0159  10.1229  10.1790  10.3704  10.4258  10.4640
    10.5225  10.6252  10.7454  10.8440  10.8918  11.0424  11.0879  11.1951
    11.2248  11.2561  11.4662  11.5095  11.5211  11.6008  11.6177  11.7127
    11.7409  11.8415  11.8815  11.9026  11.9906  12.0965  12.1253  12.1775
    12.2936  12.3870  12.4469  12.4608  12.5410  12.5918  12.6106  12.6519
    12.7147  12.7721  12.8394  12.8501  12.9457  13.0362  13.1637  13.1967
    13.3042  13.3238  13.3824  13.4341  13.4916  13.5435  13.5678  13.6461
    13.6937  13.7026

     the Fermi energy is     4.6562 ev

!    total energy              =  -21903.76530986 Ry
     Harris-Foulkes estimate   =  -21903.76530988 Ry
     estimated scf accuracy    <          4.9E-09 Ry

     The total energy is the sum of the following terms:

     one-electron contribution = -207855.16130861 Ry
     hartree contribution      =  104131.78015421 Ry
     xc contribution           =   -2143.22046479 Ry
     ewald contribution        =   83962.88905058 Ry
     smearing contrib. (-TS)   =      -0.05274125 Ry

     convergence has been achieved in  38 iterations

     General routines

     Parallel routines

      26h

   This run was terminated on:  15: 0:40  21Nov2019

   JOB DONE.