     Program PWSCF v.6.3MaX starts on 14Nov2019 at 11: 2: 0

     R & G space division:  proc/nbgrp/npool/nimage =      16
     Waiting for input...
     Reading input from standard input

     Current dimensions of program PWSCF are:
     Max number of different atomic species (ntypx) = 10
     Max number of k-points (npk) =  40000
     Max angular momentum in pseudopotentials (lmaxx) =  3
     Message from routine iosys:
     minimal I/O required, wf_collect reset to FALSE

     IMPORTANT: XC functional enforced from input :
     Exchange-correlation      = VDW-DF ( 1  4  4  0 1 0)
     Any further DFT definition will be discarded
     Please, verify this is what you really want

     bravais-lattice index     =            0
     lattice parameter (alat)  =      14.8058  a.u.
     unit-cell volume          =   10282.4791 (a.u.)^3
     number of atoms/cell      =           66
     number of atomic types    =            3
     number of electrons       =      1056.00
     number of Kohn-Sham states=          634
     kinetic-energy cutoff     =      50.0000  Ry
     charge density cutoff     =     600.0000  Ry
     convergence threshold     =      1.0E-08
     mixing beta               =       0.3000
     number of iterations used =            8  plain     mixing
     Exchange-correlation      = VDW-DF ( 1  4  4  0 1 0)

     celldm(1)=  14.805786  celldm(2)=   0.000000  celldm(3)=   0.000000
     celldm(4)=   0.000000  celldm(5)=   0.000000  celldm(6)=   0.000000

     crystal axes: (cart. coord. in units of alat)
               a(1) = (   1.000000   0.000000   0.000000 )
               a(2) = (   0.500000   0.866025   0.000000 )
               a(3) = (   0.000000   0.000000   3.658245 )

     reciprocal axes: (cart. coord. in units 2 pi/alat)
               b(1) = (  1.000000 -0.577350  0.000000 )
               b(2) = (  0.000000  1.154701  0.000000 )
               b(3) = (  0.000000  0.000000  0.273355 )

     PseudoPot. # 1 for Cu read from file:
     /deac/thonhauserGrp/chakrad/calculations/atomandmolecule-qe6.2.1-i2012-C6modif/all_pbe_UPF_v1.5/cu_pbe_v1.2.uspp.F.UPF
     MD5 check sum: 6e991ff952a84172a2a52a1c1e996048
     Pseudo is Ultrasoft + core correction, Zval = 19.0
     Generated by new atomic code, or converted to UPF format
     Using radial grid of  867 points,  6 beta functions with:
                l(1) =   0
                l(2) =   0
                l(3) =   1
                l(4) =   1
                l(5) =   2
                l(6) =   2
     Q(r) pseudized with  8 coefficients,  rinner =    1.150   1.150   1.150
                                                       1.150   1.150

     PseudoPot. # 2 for C  read from file:
     /deac/thonhauserGrp/chakrad/calculations/atomandmolecule-qe6.2.1-i2012-C6modif/all_pbe_UPF_v1.5/c_pbe_v1.2.uspp.F.UPF
     MD5 check sum: d1aef80898a10debaa0f26306b886e00
     Pseudo is Ultrasoft + core correction, Zval =  4.0
     Generated by new atomic code, or converted to UPF format
     Using radial grid of  721 points,  4 beta functions with:
                l(1) =   0
                l(2) =   0
                l(3) =   1
                l(4) =   1
     Q(r) pseudized with  8 coefficients,  rinner =    1.100   1.100   1.100

     PseudoPot. # 3 for H  read from file:
     /deac/thonhauserGrp/chakrad/calculations/atomandmolecule-qe6.2.1-i2012-C6modif/all_pbe_UPF_v1.5/h_pbe_v1.4.uspp.F.UPF
     MD5 check sum: 761ae9a214b05c3daf00ab9f6b793d6f
     Pseudo is Ultrasoft, Zval =  1.0
     Generated by new atomic code, or converted to UPF format
     Using radial grid of  615 points,  2 beta functions with:
                l(1) =   0
                l(2) =   0
     Q(r) pseudized with  8 coefficients,  rinner =    0.700

     vdW kernel table read from file vdW_kernel_table
     MD5 check sum: cc9485f6209b1096fbef62427c856dab

     atomic species   valence    mass     pseudopotential
        Cu            19.00     1.00000     Cu( 1.00)
        C              4.00     1.00000     C ( 1.00)
        H              1.00     1.00000     H ( 1.00)

     No symmetry found

   Cartesian axes

     site n.     atom                  positions (alat units)
         1           Cu  tau(   1) = (   0.1666667   0.0962250   0.2552686  )
         2           Cu  tau(   2) = (   0.5000000   0.0962250   0.2552686  )
         3           Cu  tau(   3) = (   0.8333333   0.0962250   0.2552686  )
         4           Cu  tau(   4) = (   0.3333333   0.3849002   0.2552686  )
         5           Cu  tau(   5) = (   0.6666667   0.3849002   0.2552686  )
         6           Cu  tau(   6) = (   1.0000000   0.3849002   0.2552686  )
         7           Cu  tau(   7) = (   0.5000000   0.6735753   0.2552686  )
         8           Cu  tau(   8) = (   0.8333333   0.6735753   0.2552686  )
         9           Cu  tau(   9) = (   1.1666667   0.6735753   0.2552686  )
        10           Cu  tau(  10) = (   0.0000000   0.1924501   0.5274341  )
        11           Cu  tau(  11) = (   0.3333333   0.1924501   0.5274341  )
        12           Cu  tau(  12) = (   0.6666667   0.1924501   0.5274341  )
        13           Cu  tau(  13) = (   0.1666667   0.4811252   0.5274341  )
        14           Cu  tau(  14) = (   0.5000000   0.4811252   0.5274341  )
        15           Cu  tau(  15) = (   0.8333333   0.4811252   0.5274341  )
        16           Cu  tau(  16) = (   0.3333333   0.7698004   0.5274341  )
        17           Cu  tau(  17) = (   0.6666667   0.7698004   0.5274341  )
        18           Cu  tau(  18) = (   1.0000000   0.7698004   0.5274341  )
        19           Cu  tau(  19) = (   0.0000000   0.0000000   0.7995997  )
        20           Cu  tau(  20) = (   0.3333333   0.0000000   0.7995997  )
        21           Cu  tau(  21) = (   0.6666667   0.0000000   0.7995997  )
        22           Cu  tau(  22) = (   0.1666667   0.2886751   0.7995997  )
        23           Cu  tau(  23) = (   0.5000000   0.2886751   0.7995997  )
        24           Cu  tau(  24) = (   0.8333333   0.2886751   0.7995997  )
        25           Cu  tau(  25) = (   0.3333333   0.5773503   0.7995997  )
        26           Cu  tau(  26) = (   0.6666667   0.5773503   0.7995997  )
        27           Cu  tau(  27) = (   1.0000000   0.5773503   0.7995997  )
        28           Cu  tau(  28) = (   0.1666659   0.0962246   1.0691130  )
        29           Cu  tau(  29) = (   0.5000000   0.0962241   1.0691104  )
        30           Cu  tau(  30) = (   0.8333341   0.0962246   1.0691130  )
        31           Cu  tau(  31) = (   0.3333325   0.3849006   1.0691104  )
        32           Cu  tau(  32) = (   0.6666675   0.3849006   1.0691104  )
        33           Cu  tau(  33) = (   1.0000000   0.3849003   1.0691143  )
        34           Cu  tau(  34) = (   0.5000000   0.6735762   1.0691130  )
        35           Cu  tau(  35) = (   0.8333334   0.6735753   1.0691143  )
        36           Cu  tau(  36) = (   1.1666666   0.6735753   1.0691143  )
        37           Cu  tau(  37) = (   0.0000000   0.1924486   1.3387540  )
        38           Cu  tau(  38) = (   0.3333330   0.1924499   1.3387465  )
        39           Cu  tau(  39) = (   0.6666670   0.1924499   1.3387465  )
        40           Cu  tau(  40) = (   0.1666676   0.4811247   1.3387504  )
        41           Cu  tau(  41) = (   0.5000000   0.4811256   1.3387465  )
        42           Cu  tau(  42) = (   0.8333324   0.4811247   1.3387504  )
        43           Cu  tau(  43) = (   0.3333346   0.7698011   1.3387540  )
        44           Cu  tau(  44) = (   0.6666654   0.7698011   1.3387540  )
        45           Cu  tau(  45) = (   1.0000000   0.7698014   1.3387504  )
        46           Cu  tau(  46) = (   0.0000000   0.0000000   1.6083750  )
        47           Cu  tau(  47) = (   0.3333333   0.0000005   1.6083624  )
        48           Cu  tau(  48) = (   0.6666667   0.0000005   1.6083624  )
        49           Cu  tau(  49) = (   0.1666671   0.2886748   1.6083624  )
        50           Cu  tau(  50) = (   0.5000000   0.2886751   1.6083553  )
        51           Cu  tau(  51) = (   0.8333329   0.2886748   1.6083624  )
        52           Cu  tau(  52) = (   0.3333338   0.5773500   1.6083624  )
        53           Cu  tau(  53) = (   0.6666662   0.5773500   1.6083624  )
        54           Cu  tau(  54) = (   1.0000000   0.5773503   1.6083570  )
        55           C   tau(  55) = (   0.6567407   0.3959883   2.1188551  )
        56           C   tau(  56) = (   0.5046394   0.3028152   2.1188550  )
        57           C   tau(  57) = (   0.3478975   0.3879497   2.1188551  )
        58           C   tau(  58) = (   0.3432593   0.5662630   2.1188551  )
        59           C   tau(  59) = (   0.4953606   0.6594361   2.1188550  )
        60           C   tau(  60) = (   0.6521025   0.5743016   2.1188551  )
        61           H   tau(  61) = (   0.7789959   0.3295665   2.1189333  )
        62           H   tau(  62) = (   0.5082587   0.1637263   2.1189334  )
        63           H   tau(  63) = (   0.2292624   0.3152577   2.1189333  )
        64           H   tau(  64) = (   0.2210041   0.6326847   2.1189333  )
        65           H   tau(  65) = (   0.4917413   0.7985249   2.1189334  )
        66           H   tau(  66) = (   0.7707376   0.6469936   2.1189333  )

     number of k points=    10  gaussian smearing, width (Ry)=  0.0200
                       cart. coord. in units 2pi/alat
        k(    1) = (   0.0000000   0.0000000   0.0000000), wk =   0.1250000
        k(    2) = (   0.0000000   0.2886751   0.0000000), wk =   0.2500000
        k(    3) = (   0.0000000  -0.5773503   0.0000000), wk =   0.1250000
        k(    4) = (   0.2500000  -0.7216878   0.0000000), wk =   0.2500000
        k(    5) = (  -0.2500000   0.1443376   0.0000000), wk =   0.2500000
        k(    6) = (   0.2500000   0.1443376   0.0000000), wk =   0.2500000
        k(    7) = (   0.5000000  -0.2886751   0.0000000), wk =   0.1250000
        k(    8) = (  -0.5000000  -0.2886751   0.0000000), wk =   0.1250000
        k(    9) = (  -0.2500000  -0.7216878   0.0000000), wk =   0.2500000
        k(   10) = (  -0.5000000  -0.5773503   0.0000000), wk =   0.2500000

     Initial potential from superposition of free atoms
     Check: negative starting charge=   -0.000687

     starting charge 1001.99960, renormalised to 1056.00000

     negative rho (up, down):  7.236E-04 0.000E+00

     %%%%%%%%%%%%%%%%%%%%%%%%%%%%%%%%%%%%%%%%%%%%%%%%%%%%%%%%%%%%%%%%%%%%%%%%
     %                                                                      %
     % You are using vdW-DF, which was implemented by the Thonhauser group. %
     % Please cite the following two papers that made this development      %
     % possible and the two reviews that describe the various versions:     %
     %                                                                      %
     %   T. Thonhauser et al., PRL 115, 136402 (2015).                      %
     %   T. Thonhauser et al., PRB 76, 125112 (2007).                       %
     %   K. Berland et al., Rep. Prog. Phys. 78, 066501 (2015).             %
     %   D.C. Langreth et al., J. Phys.: Condens. Matter 21, 084203 (2009). %
     %                                                                      %
     %                                                                      %
     % If you are calculating the stress with vdW-DF, please also cite:     %
     %                                                                      %
     %   R. Sabatini et al., J. Phys.: Condens. Matter 24, 424209 (2012).   %
     %                                                                      %
     %%%%%%%%%%%%%%%%%%%%%%%%%%%%%%%%%%%%%%%%%%%%%%%%%%%%%%%%%%%%%%%%%%%%%%%%

     Starting wfcs are  732 randomized atomic wfcs

     Self-consistent Calculation

     iteration #  1     ecut=    50.00 Ry     beta= 0.30
     Davidson diagonalization with overlap
     ethr =  1.00E-02,  avg # of iterations =  5.6

[...]

     total energy              =  -19190.08923901 Ry
     Harris-Foulkes estimate   =  -22002.40758941 Ry
     estimated scf accuracy    <    5560.72385334 Ry

[...]

     total energy              =  -21903.76684266 Ry
     Harris-Foulkes estimate   =  -21903.76684267 Ry
     estimated scf accuracy    <       0.00000002 Ry

     iteration # 42     ecut=    50.00 Ry     beta= 0.30
     Davidson diagonalization with overlap
     ethr =  1.16E-12,  avg # of iterations =  2.0

     negative rho (up, down):  2.241E-03 0.000E+00

     End of self-consistent calculation

          k = 0.0000 0.0000 0.0000 ( 61453 PWs)   bands (ev):

  -107.9050-107.8998-107.8987-107.8986-107.8986-107.8983-107.8983-107.8979
  -107.8960-107.8950-107.8950-107.8949-107.8949-107.8944-107.8944-107.8941
  -107.8936-107.8934-107.8918-107.8890-107.8890-107.8890-107.8886-107.8885
  -107.8885-107.8862-107.8862-107.8844-107.8802-107.8797-107.8797-107.8797
  -107.8797-107.8793-107.8774-107.8772-107.6610-107.6568-107.6568-107.6568
  -107.6554-107.6554-107.6530-107.6509-107.6509-107.6458-107.6407-107.6407
  -107.6407-107.6407-107.6407-107.6407-107.6381-107.6381 -65.3595 -65.3462
   -65.3459 -65.3459 -65.3456 -65.3456 -65.3453 -65.3382 -65.3382 -65.3382
   -65.3379 -65.3379 -65.3376 -65.3376 -65.3375 -65.3342 -65.3342 -65.3340
   -65.3339 -65.3319 -65.3261 -65.3261 -65.3260 -65.3256 -65.3255 -65.3255
   -65.3235 -65.3235 -65.3235 -65.3233 -65.3233 -65.3231 -65.3229 -65.3229
   -65.3203 -65.3203 -65.3198 -65.3197 -65.3141 -65.3141 -65.3141 -65.3137
   -65.3137 -65.3137 -65.3128 -65.3128 -65.3093 -65.3093 -65.3070 -65.3061
   -65.3060 -65.3058 -65.3058 -65.3058 -65.3058 -65.3056 -65.3046 -65.2989
   -65.2989 -65.2978 -65.2978 -65.2978 -65.2975 -65.2975 -65.2975 -65.2956
   -65.2956 -65.2956 -65.2951 -65.2949 -65.2949 -65.2943 -65.2943 -65.2916
   -65.2916 -65.2878 -65.2876 -65.2876 -65.2874 -65.2874 -65.2873 -65.2873
   -65.2873 -65.2871 -65.2869 -65.2867 -65.2867 -65.2841 -65.2812 -65.2812
   -65.2808 -65.2807 -65.2807 -65.2806 -65.2806 -65.2806 -65.2748 -65.2748
   -65.2731 -65.2731 -65.2730 -65.2728 -65.2727 -65.2727 -65.2687 -65.2687
   -65.2621 -65.2621 -65.1141 -65.1138 -65.1137 -65.1127 -65.1127 -65.1127
   -65.1101 -65.1099 -65.1099 -65.1087 -65.1000 -65.1000 -65.1000 -65.1000
   -65.0999 -65.0999 -65.0975 -65.0975 -65.0971 -65.0970 -65.0789 -65.0782
   -65.0782 -65.0769 -65.0769 -65.0763 -65.0652 -65.0652 -65.0647 -65.0647
   -65.0647 -65.0646 -65.0646 -65.0645 -65.0524 -65.0524 -65.0358 -65.0320
   -65.0320 -65.0320 -65.0307 -65.0307 -65.0276 -65.0256 -65.0256 -65.0180
   -65.0132 -65.0132 -65.0132 -65.0131 -65.0131 -65.0131 -65.0107 -65.0107
   -12.4609  -9.7214  -9.7212  -6.1363  -6.1357  -4.2148  -4.1693  -3.5483
    -2.6265  -2.5960  -2.2187  -1.5757  -1.5756  -1.4647  -1.2041  -1.2040
    -1.2040  -1.2039  -1.2039  -1.2038  -0.7994  -0.7991  -0.7991  -0.7991
    -0.7989  -0.7989  -0.6057  -0.3357  -0.3006  -0.2984  -0.2983  -0.2983
    -0.2982  -0.2982  -0.2645   0.1524   0.1524   0.1525   0.1525   0.1525
     0.1538   0.3578   0.3580   0.5024   0.5024   0.5025   0.5027   0.5027
     0.5033   0.6270   0.6270   0.6271   0.6271   0.6271   0.6272   0.6768
     0.6768   0.6768   0.6769   0.6769   0.6771   0.7045   0.7045   0.7183
     0.7183   0.7302   0.7302   0.8259   0.8259   0.8331   0.8331   0.8559
     0.8559   0.8560   0.8560   0.8560   0.8563   0.8633   0.8633   0.8644
     0.8644   0.9169   0.9169   0.9561   0.9561   1.0657   1.0657   1.0695
     1.0695   1.0696   1.0697   1.0697   1.0701   1.1007   1.1007   1.3055
     1.3055   1.3057   1.3060   1.3060   1.3067   1.4339   1.4339   1.4419
     1.4419   1.4575   1.4575   1.4578   1.4578   1.4578   1.4582   1.4955
     1.5028   1.5028   1.5157   1.5708   1.5708   1.5710   1.5712   1.5712
     1.5714   1.5841   1.5841   1.6087   1.6087   1.6409   1.6452   1.6452
     1.6573   1.6573   1.6577   1.6578   1.6578   1.6580   1.6952   1.6952
     1.7089   1.7089   1.7090   1.7090   1.7090   1.7092   1.7277   1.7278
     1.7278   1.7280   1.7280   1.7280   1.7339   1.7339   1.7518   1.8576
     1.8576   1.8589   1.8589   1.8602   1.8602   1.8604   1.8610   1.8723
     1.8723   1.8883   1.8885   1.9042   1.9042   1.9044   1.9044   1.9286
     1.9286   1.9301   1.9302   1.9302   1.9305   1.9305   1.9305   2.1169
     2.1169   2.1256   2.1259   2.1259   2.1274   2.1891   2.1894   2.1894
     2.1895   2.1895   2.1897   2.2434   2.2434   2.2578   2.2578   2.2579
     2.2592   2.2638   2.2638   2.2682   2.2682   2.2899   2.2899   2.3265
     2.3562   2.3562   2.3745   2.3745   2.3860   2.3860   2.3958   2.3960
     2.3960   2.3970   2.4197   2.4198   2.4198   2.4201   2.4201   2.4201
     2.4231   2.4231   2.4237   2.4237   2.4496   2.4497   2.4944   2.4944
     2.5584   2.5584   2.5584   2.5585   2.5585   2.5585   2.6166   2.6170
     2.6170   2.6173   2.6174   2.6174   2.6175   2.6175   2.6175   2.6181
     2.6225   2.6225   2.6832   2.6832   2.6866   2.6866   2.6866   2.6868
     2.6869   2.6869   2.6979   2.6980   2.6980   2.6982   2.6982   2.6982
     2.7227   2.7227   2.7227   2.7229   2.7229   2.7230   2.7573   2.7573
[...]
     2.9630   2.9632   2.9632   2.9633   3.7734   3.8980   3.8982   3.8982
     3.9054   3.9111   3.9111   4.3554   5.3327   5.3327   5.3340   5.3446
     5.3530   5.3530   7.0670   7.0680   7.0681   7.1136   7.1573   7.1574
     7.2490   7.5368   7.5370   7.7552   7.7552   7.7556   7.7556   7.7707
     7.7707   8.1500   8.1500   8.1529   8.1682   8.1682   8.5243   8.5710
     8.5714   8.7726   8.8287   8.8289   8.8476   8.8477   8.9170   8.9170
     8.9629   9.1558   9.4422   9.4422   9.4483   9.4483   9.4927   9.7816
     9.7818   9.8271   9.8272   9.8846  10.4721  10.5516  10.6134  10.6134
    10.6200  10.6200  10.7467  10.7467  10.7976  10.7976  10.7996  11.0205
    11.2002  11.2002  11.2534  11.2534  11.2580  11.2833  11.2833  11.3478
    11.3810  11.7146  11.7146  11.7668  11.7668  11.7681  11.8221  11.8221
    11.8312  11.8319  11.8319  11.9357  11.9357  11.9860  12.0907  12.1900
    12.1900  12.2248  12.2821  12.2821  12.3361  12.4569  12.4570  12.6633
    12.9248  12.9322  12.9326  12.9569  12.9634  12.9703  12.9704  13.0152
    13.0586  13.0695

[...]

          k =-0.2500 0.1443 0.0000 ( 61417 PWs)   bands (ev):

[...]

          k = 0.5000-0.2887 0.0000 ( 61408 PWs)   bands (ev):

[...]

          k =-0.5000-0.5774 0.0000 ( 61343 PWs)   bands (ev):

  -107.9034-107.9017-107.9013-107.8986-107.8976-107.8975-107.8972-107.8966
  -107.8963-107.8958-107.8958-107.8953-107.8949-107.8943-107.8940-107.8936
  -107.8935-107.8925-107.8918-107.8911-107.8909-107.8883-107.8880-107.8873
  -107.8872-107.8868-107.8866-107.8832-107.8820-107.8817-107.8793-107.8790
  -107.8784-107.8782-107.8780-107.8776-107.6600-107.6587-107.6575-107.6559
  -107.6552-107.6550-107.6528-107.6510-107.6508-107.6445-107.6431-107.6430
  -107.6401-107.6400-107.6390-107.6390-107.6390-107.6386 -65.3553 -65.3508
   -65.3504 -65.3495 -65.3493 -65.3482 -65.3480 -65.3466 -65.3449 -65.3433
   -65.3431 -65.3420 -65.3392 -65.3373 -65.3369 -65.3369 -65.3367 -65.3341
   -65.3310 -65.3306 -65.3305 -65.3303 -65.3301 -65.3286 -65.3284 -65.3275
   -65.3266 -65.3265 -65.3237 -65.3234 -65.3183 -65.3181 -65.3177 -65.3170
   -65.3145 -65.3143 -65.3135 -65.3133 -65.3131 -65.3101 -65.3096 -65.3094
   -65.3084 -65.3077 -65.3074 -65.3073 -65.3063 -65.3034 -65.3032 -65.3031
   -65.3029 -65.3029 -65.3028 -65.3014 -65.3012 -65.3010 -65.3008 -65.2992
   -65.2991 -65.2978 -65.2976 -65.2973 -65.2972 -65.2967 -65.2950 -65.2938
   -65.2937 -65.2936 -65.2934 -65.2929 -65.2927 -65.2920 -65.2919 -65.2918
   -65.2916 -65.2903 -65.2902 -65.2894 -65.2888 -65.2887 -65.2883 -65.2869
   -65.2866 -65.2859 -65.2858 -65.2857 -65.2856 -65.2856 -65.2854 -65.2853
   -65.2834 -65.2832 -65.2828 -65.2809 -65.2807 -65.2799 -65.2798 -65.2797
   -65.2789 -65.2788 -65.2766 -65.2755 -65.2755 -65.2746 -65.2710 -65.2691
   -65.2690 -65.2653 -65.1268 -65.1260 -65.1235 -65.1169 -65.1135 -65.1134
   -65.1134 -65.1124 -65.1106 -65.1040 -65.1001 -65.1000 -65.0937 -65.0919
   -65.0906 -65.0902 -65.0856 -65.0845 -65.0840 -65.0833 -65.0805 -65.0785
   -65.0776 -65.0776 -65.0773 -65.0728 -65.0725 -65.0719 -65.0719 -65.0710
   -65.0710 -65.0685 -65.0644 -65.0599 -65.0598 -65.0558 -65.0349 -65.0338
   -65.0325 -65.0312 -65.0305 -65.0304 -65.0275 -65.0257 -65.0255 -65.0167
   -65.0153 -65.0153 -65.0126 -65.0125 -65.0116 -65.0115 -65.0115 -65.0111
   -12.4592  -9.7269  -9.7244  -6.1389  -6.1304  -4.1617  -3.5360  -2.9297
    -2.7298  -2.7297  -2.5709  -2.2258  -2.1550  -2.1550  -2.0062  -1.6525
    -1.6114  -1.2962  -1.2953  -0.9224  -0.7190  -0.7190  -0.3701  -0.3681
    -0.3583  -0.3234  -0.2738  -0.1282  -0.1282  -0.1188   0.0472   0.0476
     0.0664   0.0665   0.0826   0.1325   0.1448   0.1449   0.1619   0.2605
     0.2642   0.2676   0.2677   0.2969   0.3377   0.3427   0.3446   0.4059
     0.4061   0.4179   0.4287   0.4559   0.4560   0.4590   0.4777   0.4782
     0.5467   0.5468   0.5710   0.5733   0.6035   0.6036   0.6281   0.6375
     0.6376   0.7068   0.7069   0.7329   0.7556   0.7655   0.7656   0.8412
     0.8424   0.8925   0.9119   0.9120   0.9419   0.9420   0.9987   1.0080
     1.0081   1.0233   1.0233   1.0385   1.0762   1.1039   1.1040   1.1460
     1.1462   1.1737   1.1794   1.1796   1.1807   1.1968   1.1970   1.2571
     1.2574   1.2598   1.2599   1.2625   1.2756   1.2920   1.2930   1.3066
     1.3068   1.3345   1.3351   1.3581   1.3607   1.3610   1.3801   1.4036
     1.4446   1.4529   1.4531   1.4536   1.4542   1.4833   1.5023   1.5066
     1.5070   1.5437   1.5437   1.5450   1.5476   1.5537   1.5767   1.5981
     1.5983   1.6157   1.6158   1.6427   1.6432   1.6520   1.6521   1.6662
     1.6666   1.6800   1.6802   1.6978   1.6981   1.7123   1.7215   1.7453
     1.7607   1.7618   1.7630   1.7813   1.7840   1.7844   1.7910   1.7997
     1.8000   1.8084   1.8085   1.8226   1.8285   1.8287   1.8289   1.8378
     1.8509   1.8557   1.8794   1.8973   1.8981   1.9068   1.9086   1.9092
     1.9153   1.9166   1.9168   1.9194   1.9247   1.9307   1.9324   1.9332
     1.9925   1.9932   2.0541   2.0546   2.0636   2.0672   2.0673   2.0725
     2.0951   2.0952   2.1154   2.1173   2.1189   2.1378   2.1539   2.1549
     2.1857   2.1869   2.1975   2.2278   2.2281   2.2309   2.2313   2.2353
     2.2373   2.2375   2.2438   2.2496   2.2578   2.2579   2.2982   2.3159
     2.3194   2.3227   2.3241   2.3281   2.3383   2.3441   2.3568   2.3650
     2.3780   2.3864   2.3901   2.4204   2.4246   2.4326   2.4404   2.4464
     2.4502   2.4534   2.4837   2.4937   2.4980   2.4986   2.5253   2.5255
     2.5466   2.5532   2.5539   2.5721   2.5727   2.5957   2.5959   2.5966
     2.6004   2.6026   2.6164   2.6167   2.6211   2.6266   2.6290   2.6459
     2.6846   2.6921   2.6923   2.6939   2.7426   2.7428   2.7520   2.7530
     2.7848   2.7979   2.7982   2.8037   2.8039   2.8195   2.8220   2.8483
[...]
     4.1198   4.1279   4.2256   4.2257   4.2384   4.5016   4.6134   4.6167
     4.6340   4.6341   4.7515   5.0805   5.1081   5.1088   5.5510   5.5928
     5.6085   5.6445   5.8441   5.8655   5.8670   5.9980   6.0020   6.0888
     6.1592   6.5330   6.6125   6.6139   6.7892   6.8375   6.9354   6.9892
     6.9898   7.2885   7.4251   7.4586   7.5565   7.7639   7.8107   7.9177
     8.4076   8.4095   8.4578   8.5133   8.7037   9.0528   9.0751   9.1152
     9.1864   9.2665   9.3319   9.4218   9.4290   9.5830   9.6143   9.6486
     9.7641   9.7997  10.0067  10.1118  10.1242  10.3039  10.3572  10.4712
    10.4872  10.5523  10.6226  10.7493  10.7797  11.0106  11.0932  11.1501
    11.2456  11.3007  11.3781  11.4177  11.4231  11.5786  11.6165  11.6478
    11.6646  11.7395  11.7838  11.8315  11.9450  12.0517  12.0640  12.1911
    12.2567  12.3126  12.3303  12.3634  12.4293  12.4374  12.5023  12.5677
    12.6626  12.6914  12.7757  12.9013  12.9250  12.9546  13.1299  13.2123
    13.2456  13.2888  13.3490  13.3662  13.4420  13.4599  13.5311  13.5983
    13.6346  13.6555

     the Fermi energy is     4.5435 ev

!    total energy              =  -21903.76684265 Ry
     Harris-Foulkes estimate   =  -21903.76684266 Ry
     estimated scf accuracy    <          1.5E-09 Ry

     The total energy is the sum of the following terms:

     one-electron contribution = -205665.18072273 Ry
     hartree contribution      =  103032.97495636 Ry
     xc contribution           =   -2143.15620771 Ry
     ewald contribution        =   82871.64767882 Ry
     smearing contrib. (-TS)   =      -0.05254738 Ry

     convergence has been achieved in  42 iterations

     General routines

     Parallel routines

       7h

   This run was terminated on:  21: 9:28  14Nov2019

   JOB DONE.