     Program PWSCF v.6.3MaX starts on 21Nov2019 at  5:47: 7

     R & G space division:  proc/nbgrp/npool/nimage =      16
     Waiting for input...
     Reading input from standard input

     Current dimensions of program PWSCF are:
     Max number of different atomic species (ntypx) = 10
     Max number of k-points (npk) =  40000
     Max angular momentum in pseudopotentials (lmaxx) =  3
     Message from routine iosys:
     minimal I/O required, wf_collect reset to FALSE

     IMPORTANT: XC functional enforced from input :
     Exchange-correlation      = VDW-DF ( 1  4  4  0 1 0)
     Any further DFT definition will be discarded
     Please, verify this is what you really want

     bravais-lattice index     =            0
     lattice parameter (alat)  =      14.8058  a.u.
     unit-cell volume          =   10282.4791 (a.u.)^3
     number of atoms/cell      =           66
     number of atomic types    =            3
     number of electrons       =      1056.00
     number of Kohn-Sham states=          634
     kinetic-energy cutoff     =      50.0000  Ry
     charge density cutoff     =     600.0000  Ry
     convergence threshold     =      1.0E-08
     mixing beta               =       0.3000
     number of iterations used =            8  plain     mixing
     Exchange-correlation      = VDW-DF ( 1  4  4  0 1 0)

     celldm(1)=  14.805786  celldm(2)=   0.000000  celldm(3)=   0.000000
     celldm(4)=   0.000000  celldm(5)=   0.000000  celldm(6)=   0.000000

     crystal axes: (cart. coord. in units of alat)
               a(1) = (   1.000000   0.000000   0.000000 )
               a(2) = (   0.500000   0.866025   0.000000 )
               a(3) = (   0.000000   0.000000   3.658245 )

     reciprocal axes: (cart. coord. in units 2 pi/alat)
               b(1) = (  1.000000 -0.577350  0.000000 )
               b(2) = (  0.000000  1.154701  0.000000 )
               b(3) = (  0.000000  0.000000  0.273355 )

     PseudoPot. # 1 for Cu read from file:
     /deac/thonhauserGrp/chakrad/calculations/atomandmolecule-qe6.2.1-i2012-C6modif/all_pbe_UPF_v1.5/cu_pbe_v1.2.uspp.F.UPF
     MD5 check sum: 6e991ff952a84172a2a52a1c1e996048
     Pseudo is Ultrasoft + core correction, Zval = 19.0
     Generated by new atomic code, or converted to UPF format
     Using radial grid of  867 points,  6 beta functions with:
                l(1) =   0
                l(2) =   0
                l(3) =   1
                l(4) =   1
                l(5) =   2
                l(6) =   2
     Q(r) pseudized with  8 coefficients,  rinner =    1.150   1.150   1.150
                                                       1.150   1.150

     PseudoPot. # 2 for C  read from file:
     /deac/thonhauserGrp/chakrad/calculations/atomandmolecule-qe6.2.1-i2012-C6modif/all_pbe_UPF_v1.5/c_pbe_v1.2.uspp.F.UPF
     MD5 check sum: d1aef80898a10debaa0f26306b886e00
     Pseudo is Ultrasoft + core correction, Zval =  4.0
     Generated by new atomic code, or converted to UPF format
     Using radial grid of  721 points,  4 beta functions with:
                l(1) =   0
                l(2) =   0
                l(3) =   1
                l(4) =   1
     Q(r) pseudized with  8 coefficients,  rinner =    1.100   1.100   1.100

     PseudoPot. # 3 for H  read from file:
     /deac/thonhauserGrp/chakrad/calculations/atomandmolecule-qe6.2.1-i2012-C6modif/all_pbe_UPF_v1.5/h_pbe_v1.4.uspp.F.UPF
     MD5 check sum: 761ae9a214b05c3daf00ab9f6b793d6f
     Pseudo is Ultrasoft, Zval =  1.0
     Generated by new atomic code, or converted to UPF format
     Using radial grid of  615 points,  2 beta functions with:
                l(1) =   0
                l(2) =   0
     Q(r) pseudized with  8 coefficients,  rinner =    0.700

     vdW kernel table read from file vdW_kernel_table
     MD5 check sum: cc9485f6209b1096fbef62427c856dab

     atomic species   valence    mass     pseudopotential
        Cu            19.00     1.00000     Cu( 1.00)
        C              4.00     1.00000     C ( 1.00)
        H              1.00     1.00000     H ( 1.00)

     No symmetry found

   Cartesian axes

     site n.     atom                  positions (alat units)
         1           Cu  tau(   1) = (   0.1666667   0.0962250   0.2552686  )
         2           Cu  tau(   2) = (   0.5000000   0.0962250   0.2552686  )
         3           Cu  tau(   3) = (   0.8333333   0.0962250   0.2552686  )
         4           Cu  tau(   4) = (   0.3333333   0.3849002   0.2552686  )
         5           Cu  tau(   5) = (   0.6666667   0.3849002   0.2552686  )
         6           Cu  tau(   6) = (   1.0000000   0.3849002   0.2552686  )
         7           Cu  tau(   7) = (   0.5000000   0.6735753   0.2552686  )
         8           Cu  tau(   8) = (   0.8333333   0.6735753   0.2552686  )
         9           Cu  tau(   9) = (   1.1666667   0.6735753   0.2552686  )
        10           Cu  tau(  10) = (   0.0000000   0.1924501   0.5274341  )
        11           Cu  tau(  11) = (   0.3333333   0.1924501   0.5274341  )
        12           Cu  tau(  12) = (   0.6666667   0.1924501   0.5274341  )
        13           Cu  tau(  13) = (   0.1666667   0.4811252   0.5274341  )
        14           Cu  tau(  14) = (   0.5000000   0.4811252   0.5274341  )
        15           Cu  tau(  15) = (   0.8333333   0.4811252   0.5274341  )
        16           Cu  tau(  16) = (   0.3333333   0.7698004   0.5274341  )
        17           Cu  tau(  17) = (   0.6666667   0.7698004   0.5274341  )
        18           Cu  tau(  18) = (   1.0000000   0.7698004   0.5274341  )
        19           Cu  tau(  19) = (   0.0000000   0.0000000   0.7995997  )
        20           Cu  tau(  20) = (   0.3333333   0.0000000   0.7995997  )
        21           Cu  tau(  21) = (   0.6666667   0.0000000   0.7995997  )
        22           Cu  tau(  22) = (   0.1666667   0.2886751   0.7995997  )
        23           Cu  tau(  23) = (   0.5000000   0.2886751   0.7995997  )
        24           Cu  tau(  24) = (   0.8333333   0.2886751   0.7995997  )
        25           Cu  tau(  25) = (   0.3333333   0.5773503   0.7995997  )
        26           Cu  tau(  26) = (   0.6666667   0.5773503   0.7995997  )
        27           Cu  tau(  27) = (   1.0000000   0.5773503   0.7995997  )
        28           Cu  tau(  28) = (   0.1666659   0.0962246   1.0691130  )
        29           Cu  tau(  29) = (   0.5000000   0.0962241   1.0691104  )
        30           Cu  tau(  30) = (   0.8333341   0.0962246   1.0691130  )
        31           Cu  tau(  31) = (   0.3333325   0.3849006   1.0691104  )
        32           Cu  tau(  32) = (   0.6666675   0.3849006   1.0691104  )
        33           Cu  tau(  33) = (   1.0000000   0.3849003   1.0691143  )
        34           Cu  tau(  34) = (   0.5000000   0.6735762   1.0691130  )
        35           Cu  tau(  35) = (   0.8333334   0.6735753   1.0691143  )
        36           Cu  tau(  36) = (   1.1666666   0.6735753   1.0691143  )
        37           Cu  tau(  37) = (   0.0000000   0.1924486   1.3387540  )
        38           Cu  tau(  38) = (   0.3333330   0.1924499   1.3387465  )
        39           Cu  tau(  39) = (   0.6666670   0.1924499   1.3387465  )
        40           Cu  tau(  40) = (   0.1666676   0.4811247   1.3387504  )
        41           Cu  tau(  41) = (   0.5000000   0.4811256   1.3387465  )
        42           Cu  tau(  42) = (   0.8333324   0.4811247   1.3387504  )
        43           Cu  tau(  43) = (   0.3333346   0.7698011   1.3387540  )
        44           Cu  tau(  44) = (   0.6666654   0.7698011   1.3387540  )
        45           Cu  tau(  45) = (   1.0000000   0.7698014   1.3387504  )
        46           Cu  tau(  46) = (   0.0000000   0.0000000   1.6083750  )
        47           Cu  tau(  47) = (   0.3333333   0.0000005   1.6083624  )
        48           Cu  tau(  48) = (   0.6666667   0.0000005   1.6083624  )
        49           Cu  tau(  49) = (   0.1666671   0.2886748   1.6083624  )
        50           Cu  tau(  50) = (   0.5000000   0.2886751   1.6083553  )
        51           Cu  tau(  51) = (   0.8333329   0.2886748   1.6083624  )
        52           Cu  tau(  52) = (   0.3333338   0.5773500   1.6083624  )
        53           Cu  tau(  53) = (   0.6666662   0.5773500   1.6083624  )
        54           Cu  tau(  54) = (   1.0000000   0.5773503   1.6083570  )
        55           C   tau(  55) = (   0.6567407   0.3959883   2.0295111  )
        56           C   tau(  56) = (   0.5046394   0.3028152   2.0295110  )
        57           C   tau(  57) = (   0.3478975   0.3879497   2.0295111  )
        58           C   tau(  58) = (   0.3432593   0.5662630   2.0295111  )
        59           C   tau(  59) = (   0.4953606   0.6594361   2.0295110  )
        60           C   tau(  60) = (   0.6521025   0.5743016   2.0295111  )
        61           H   tau(  61) = (   0.7789959   0.3295665   2.0295893  )
        62           H   tau(  62) = (   0.5082587   0.1637263   2.0295894  )
        63           H   tau(  63) = (   0.2292624   0.3152577   2.0295893  )
        64           H   tau(  64) = (   0.2210041   0.6326847   2.0295893  )
        65           H   tau(  65) = (   0.4917413   0.7985249   2.0295894  )
        66           H   tau(  66) = (   0.7707376   0.6469936   2.0295893  )

     number of k points=    10  gaussian smearing, width (Ry)=  0.0200
                       cart. coord. in units 2pi/alat
        k(    1) = (   0.0000000   0.0000000   0.0000000), wk =   0.1250000
        k(    2) = (   0.0000000   0.2886751   0.0000000), wk =   0.2500000
        k(    3) = (   0.0000000  -0.5773503   0.0000000), wk =   0.1250000
        k(    4) = (   0.2500000  -0.7216878   0.0000000), wk =   0.2500000
        k(    5) = (  -0.2500000   0.1443376   0.0000000), wk =   0.2500000
        k(    6) = (   0.2500000   0.1443376   0.0000000), wk =   0.2500000
        k(    7) = (   0.5000000  -0.2886751   0.0000000), wk =   0.1250000
        k(    8) = (  -0.5000000  -0.2886751   0.0000000), wk =   0.1250000
        k(    9) = (  -0.2500000  -0.7216878   0.0000000), wk =   0.2500000
        k(   10) = (  -0.5000000  -0.5773503   0.0000000), wk =   0.2500000

     Initial potential from superposition of free atoms
     Check: negative starting charge=   -0.000765

     starting charge 1001.99960, renormalised to 1056.00000

     negative rho (up, down):  8.057E-04 0.000E+00

     %%%%%%%%%%%%%%%%%%%%%%%%%%%%%%%%%%%%%%%%%%%%%%%%%%%%%%%%%%%%%%%%%%%%%%%%
     %                                                                      %
     % You are using vdW-DF, which was implemented by the Thonhauser group. %
     % Please cite the following two papers that made this development      %
     % possible and the two reviews that describe the various versions:     %
     %                                                                      %
     %   T. Thonhauser et al., PRL 115, 136402 (2015).                      %
     %   T. Thonhauser et al., PRB 76, 125112 (2007).                       %
     %   K. Berland et al., Rep. Prog. Phys. 78, 066501 (2015).             %
     %   D.C. Langreth et al., J. Phys.: Condens. Matter 21, 084203 (2009). %
     %                                                                      %
     %                                                                      %
     % If you are calculating the stress with vdW-DF, please also cite:     %
     %                                                                      %
     %   R. Sabatini et al., J. Phys.: Condens. Matter 24, 424209 (2012).   %
     %                                                                      %
     %%%%%%%%%%%%%%%%%%%%%%%%%%%%%%%%%%%%%%%%%%%%%%%%%%%%%%%%%%%%%%%%%%%%%%%%

     Starting wfcs are  732 randomized atomic wfcs

     Self-consistent Calculation

     iteration #  1     ecut=    50.00 Ry     beta= 0.30
     Davidson diagonalization with overlap
     ethr =  1.00E-02,  avg # of iterations =  5.8

[...]

     total energy              =  -18916.96968938 Ry
     Harris-Foulkes estimate   =  -22008.05270810 Ry
     estimated scf accuracy    <    6109.27318191 Ry

[...]

     total energy              =  -21903.76637186 Ry
     Harris-Foulkes estimate   =  -21903.76637191 Ry
     estimated scf accuracy    <       0.00000002 Ry

     iteration # 36     ecut=    50.00 Ry     beta= 0.30
     Davidson diagonalization with overlap
     ethr =  1.52E-12,  avg # of iterations =  2.0

     negative rho (up, down):  2.512E-03 0.000E+00

     End of self-consistent calculation

          k = 0.0000 0.0000 0.0000 ( 61453 PWs)   bands (ev):

  -107.8026-107.7995-107.7953-107.7953-107.7951-107.7946-107.7946-107.7943
  -107.7931-107.7917-107.7917-107.7914-107.7914-107.7906-107.7906-107.7903
  -107.7900-107.7900-107.7861-107.7861-107.7859-107.7847-107.7846-107.7840
  -107.7820-107.7820-107.7818-107.7807-107.7771-107.7758-107.7758-107.7758
  -107.7758-107.7747-107.7735-107.7723-107.5784-107.5748-107.5747-107.5738
  -107.5720-107.5720-107.5676-107.5654-107.5654-107.5416-107.5366-107.5366
  -107.5366-107.5363-107.5363-107.5363-107.5339-107.5339 -65.2560 -65.2439
   -65.2425 -65.2425 -65.2419 -65.2419 -65.2411 -65.2354 -65.2352 -65.2351
   -65.2344 -65.2343 -65.2336 -65.2336 -65.2336 -65.2308 -65.2305 -65.2305
   -65.2302 -65.2286 -65.2237 -65.2237 -65.2230 -65.2218 -65.2215 -65.2215
   -65.2202 -65.2201 -65.2201 -65.2196 -65.2196 -65.2186 -65.2186 -65.2184
   -65.2162 -65.2162 -65.2162 -65.2156 -65.2108 -65.2108 -65.2106 -65.2098
   -65.2096 -65.2096 -65.2090 -65.2090 -65.2054 -65.2054 -65.2053 -65.2028
   -65.2026 -65.2023 -65.2023 -65.2022 -65.2022 -65.2017 -65.1981 -65.1952
   -65.1952 -65.1943 -65.1943 -65.1939 -65.1936 -65.1936 -65.1930 -65.1926
   -65.1925 -65.1925 -65.1912 -65.1905 -65.1905 -65.1904 -65.1904 -65.1877
   -65.1877 -65.1845 -65.1842 -65.1842 -65.1842 -65.1838 -65.1838 -65.1831
   -65.1831 -65.1828 -65.1822 -65.1822 -65.1822 -65.1798 -65.1777 -65.1777
   -65.1774 -65.1767 -65.1767 -65.1767 -65.1763 -65.1763 -65.1708 -65.1708
   -65.1696 -65.1696 -65.1694 -65.1688 -65.1685 -65.1685 -65.1650 -65.1650
   -65.1583 -65.1583 -65.0308 -65.0308 -65.0303 -65.0275 -65.0271 -65.0271
   -65.0256 -65.0238 -65.0238 -65.0207 -64.9961 -64.9958 -64.9958 -64.9958
   -64.9956 -64.9956 -64.9956 -64.9933 -64.9933 -64.9932 -64.9932 -64.9930
   -64.9926 -64.9913 -64.9913 -64.9898 -64.9794 -64.9794 -64.9606 -64.9606
   -64.9605 -64.9605 -64.9605 -64.9600 -64.9569 -64.9538 -64.9538 -64.9519
   -64.9500 -64.9500 -64.9482 -64.9482 -64.9446 -64.9426 -64.9426 -64.9135
   -64.9089 -64.9089 -64.9089 -64.9085 -64.9085 -64.9085 -64.9062 -64.9062
   -12.7793 -10.0295 -10.0292  -6.4325  -6.4320  -4.5062  -4.0670  -3.4487
    -2.9035  -2.5219  -2.5035  -1.8674  -1.8673  -1.3951  -1.1030  -1.1014
    -1.1014  -1.1011  -1.1011  -1.1011  -0.7767  -0.6985  -0.6985  -0.6978
    -0.6978  -0.6976  -0.6745  -0.4379  -0.2009  -0.1999  -0.1999  -0.1985
    -0.1985  -0.1979  -0.1817   0.0683   0.0686   0.2498   0.2498   0.2530
     0.2545   0.2545   0.2579   0.5994   0.5994   0.6029   0.6032   0.6032
     0.6060   0.7286   0.7286   0.7293   0.7297   0.7297   0.7305   0.7779
     0.7779   0.7787   0.7787   0.7788   0.7797   0.8080   0.8080   0.8220
     0.8220   0.8316   0.8317   0.9275   0.9275   0.9367   0.9367   0.9530
     0.9530   0.9544   0.9557   0.9557   0.9569   0.9669   0.9669   0.9680
     0.9680   1.0127   1.0127   1.0602   1.0602   1.1612   1.1612   1.1653
     1.1653   1.1678   1.1682   1.1682   1.1699   1.2048   1.2048   1.3969
     1.3969   1.4044   1.4044   1.4048   1.4065   1.5368   1.5368   1.5452
     1.5452   1.5517   1.5517   1.5586   1.5586   1.5592   1.5602   1.5995
     1.6001   1.6003   1.6178   1.6659   1.6659   1.6721   1.6721   1.6727
     1.6729   1.6847   1.6848   1.7120   1.7120   1.7413   1.7417   1.7417
     1.7486   1.7486   1.7578   1.7578   1.7579   1.7593   1.7982   1.7982
     1.8024   1.8024   1.8100   1.8103   1.8103   1.8108   1.8304   1.8305
     1.8305   1.8313   1.8315   1.8315   1.8373   1.8373   1.8516   1.8640
     1.8640   1.9422   1.9422   1.9561   1.9574   1.9574   1.9605   1.9635
     1.9660   1.9766   1.9766   1.9938   1.9938   2.0085   2.0086   2.0313
     2.0313   2.0315   2.0315   2.0317   2.0324   2.0330   2.0330   2.0425
     2.0426   2.2195   2.2196   2.2199   2.2242   2.2663   2.2663   2.2890
     2.2892   2.2892   2.2901   2.2902   2.2902   2.3477   2.3477   2.3503
     2.3520   2.3675   2.3675   2.3708   2.3708   2.3933   2.3933   2.3965
     2.3965   2.4414   2.4593   2.4593   2.4878   2.4878   2.4903   2.4903
     2.4917   2.4967   2.5094   2.5094   2.5192   2.5192   2.5196   2.5203
     2.5203   2.5207   2.5210   2.5210   2.5274   2.5274   2.5944   2.5944
     2.6599   2.6601   2.6601   2.6606   2.6607   2.6607   2.7153   2.7161
     2.7161   2.7179   2.7201   2.7201   2.7201   2.7206   2.7207   2.7207
     2.7261   2.7261   2.7808   2.7808   2.7878   2.7881   2.7881   2.7889
     2.7889   2.7889   2.7998   2.7999   2.7999   2.8004   2.8005   2.8005
     2.8234   2.8234   2.8234   2.8239   2.8240   2.8240   2.8485   2.8485
[...]
     3.0631   3.0642   3.0643   3.0643   3.8945   3.9874   3.9874   3.9906
     4.0202   4.0374   4.0374   4.4997   5.4074   5.4074   5.4205   5.4500
     5.4812   5.4812   6.9619   6.9620   7.0323   7.1833   7.2976   7.2978
     7.2978   7.4448   7.4449   7.8580   7.8580   7.8582   7.8584   7.8744
     7.8744   8.1814   8.2498   8.2498   8.2718   8.2718   8.4679   8.6613
     8.6638   8.7948   8.8848   8.8849   8.9186   8.9197   9.0172   9.0788
     9.0788   9.2956   9.4678   9.5419   9.5419   9.5495   9.5495   9.8302
     9.8304   9.8785   9.9245   9.9269  10.5579  10.5898  10.6832  10.6832
    10.7187  10.7187  10.8719  10.8719  10.9163  10.9164  10.9703  11.0584
    11.0584  11.1210  11.2345  11.3331  11.3331  11.3671  11.3671  11.3890
    11.5001  11.6435  11.6436  11.7974  11.8361  11.8361  11.8737  11.8737
    11.9223  11.9340  11.9340  11.9622  11.9622  12.0331  12.1329  12.2307
    12.2307  12.2573  12.3108  12.3581  12.3581  12.4840  12.4840  12.7456
    12.8808  12.8849  12.8851  13.0135  13.0135  13.0290  13.0417  13.0544
    13.1357  13.1471

[...]

          k =-0.2500 0.1443 0.0000 ( 61417 PWs)   bands (ev):

[...]

          k = 0.5000-0.2887 0.0000 ( 61408 PWs)   bands (ev):

[...]

          k =-0.5000-0.5774 0.0000 ( 61343 PWs)   bands (ev):

  -107.8019-107.7991-107.7976-107.7968-107.7942-107.7940-107.7938-107.7930
  -107.7928-107.7923-107.7919-107.7917-107.7914-107.7907-107.7906-107.7901
  -107.7896-107.7891-107.7878-107.7871-107.7854-107.7842-107.7841-107.7836
  -107.7823-107.7820-107.7818-107.7797-107.7782-107.7775-107.7758-107.7750
  -107.7746-107.7741-107.7740-107.7723-107.5777-107.5757-107.5751-107.5738
  -107.5719-107.5717-107.5677-107.5655-107.5653-107.5403-107.5389-107.5387
  -107.5360-107.5357-107.5349-107.5348-107.5345-107.5343 -65.2520 -65.2478
   -65.2467 -65.2462 -65.2455 -65.2449 -65.2443 -65.2430 -65.2415 -65.2397
   -65.2394 -65.2384 -65.2357 -65.2342 -65.2335 -65.2330 -65.2329 -65.2305
   -65.2286 -65.2270 -65.2268 -65.2266 -65.2262 -65.2250 -65.2245 -65.2238
   -65.2230 -65.2225 -65.2202 -65.2194 -65.2158 -65.2145 -65.2141 -65.2132
   -65.2110 -65.2106 -65.2101 -65.2096 -65.2092 -65.2069 -65.2060 -65.2058
   -65.2051 -65.2043 -65.2037 -65.2032 -65.2021 -65.2002 -65.1998 -65.1995
   -65.1993 -65.1991 -65.1988 -65.1979 -65.1974 -65.1970 -65.1962 -65.1958
   -65.1952 -65.1940 -65.1937 -65.1935 -65.1933 -65.1928 -65.1913 -65.1904
   -65.1901 -65.1898 -65.1894 -65.1893 -65.1885 -65.1883 -65.1879 -65.1876
   -65.1874 -65.1866 -65.1862 -65.1855 -65.1852 -65.1845 -65.1843 -65.1833
   -65.1825 -65.1823 -65.1822 -65.1820 -65.1817 -65.1815 -65.1814 -65.1811
   -65.1796 -65.1790 -65.1787 -65.1771 -65.1766 -65.1762 -65.1758 -65.1756
   -65.1750 -65.1748 -65.1728 -65.1718 -65.1716 -65.1708 -65.1672 -65.1653
   -65.1651 -65.1614 -65.0426 -65.0409 -65.0387 -65.0317 -65.0288 -65.0266
   -65.0093 -65.0093 -65.0091 -65.0079 -65.0064 -65.0057 -65.0044 -65.0016
   -64.9998 -64.9990 -64.9984 -64.9971 -64.9959 -64.9958 -64.9917 -64.9877
   -64.9863 -64.9824 -64.9763 -64.9743 -64.9734 -64.9734 -64.9678 -64.9676
   -64.9669 -64.9667 -64.9602 -64.9565 -64.9557 -64.9556 -64.9542 -64.9540
   -64.9521 -64.9516 -64.9499 -64.9498 -64.9447 -64.9426 -64.9425 -64.9123
   -64.9110 -64.9108 -64.9083 -64.9080 -64.9072 -64.9072 -64.9068 -64.9066
   -12.7777 -10.0349 -10.0324  -6.4350  -6.4266  -4.4526  -3.4336  -2.8480
    -2.8310  -2.6277  -2.6274  -2.5290  -2.0607  -2.0576  -1.9610  -1.9010
    -1.8958  -1.2178  -1.1970  -0.8923  -0.6568  -0.6164  -0.6136  -0.2675
    -0.2662  -0.2290  -0.2006  -0.0254  -0.0253  -0.0162   0.0096   0.0494
     0.1482   0.1496   0.1693   0.1696   0.1859   0.2355   0.2469   0.2471
     0.2648   0.3636   0.3664   0.3690   0.3694   0.4385   0.4467   0.5062
     0.5081   0.5192   0.5304   0.5589   0.5590   0.5612   0.5792   0.5808
     0.6429   0.6438   0.6740   0.6741   0.7044   0.7044   0.7316   0.7396
     0.7404   0.8043   0.8047   0.8339   0.8545   0.8683   0.8688   0.9396
     0.9439   0.9944   1.0139   1.0146   1.0399   1.0406   1.1000   1.1085
     1.1099   1.1257   1.1260   1.1369   1.1776   1.2037   1.2046   1.2478
     1.2486   1.2731   1.2761   1.2784   1.2806   1.2980   1.2982   1.3537
     1.3556   1.3592   1.3603   1.3650   1.3753   1.3942   1.3957   1.4060
     1.4082   1.4336   1.4365   1.4559   1.4582   1.4599   1.4784   1.5060
     1.5454   1.5504   1.5527   1.5543   1.5552   1.5827   1.5971   1.6039
     1.6065   1.6410   1.6439   1.6458   1.6479   1.6552   1.6779   1.6974
     1.6992   1.7125   1.7129   1.7208   1.7378   1.7516   1.7539   1.7565
     1.7584   1.7758   1.7791   1.7946   1.7952   1.8110   1.8174   1.8192
     1.8305   1.8424   1.8635   1.8664   1.8775   1.8810   1.8888   1.8940
     1.8972   1.9016   1.9113   1.9118   1.9199   1.9251   1.9258   1.9278
     1.9498   1.9561   1.9585   1.9756   1.9832   1.9949   2.0013   2.0039
     2.0159   2.0167   2.0182   2.0208   2.0224   2.0259   2.0271   2.0322
     2.0421   2.0605   2.0998   2.1040   2.1599   2.1600   2.1612   2.1670
     2.1714   2.1761   2.1942   2.1946   2.2182   2.2292   2.2310   2.2401
     2.2601   2.2611   2.2982   2.3005   2.3024   2.3313   2.3325   2.3338
     2.3342   2.3359   2.3377   2.3396   2.3438   2.3525   2.3708   2.3714
     2.4154   2.4190   2.4210   2.4221   2.4285   2.4338   2.4419   2.4649
     2.4701   2.4741   2.4875   2.5089   2.5104   2.5301   2.5374   2.5382
     2.5495   2.5533   2.5825   2.5902   2.5946   2.5985   2.6236   2.6256
     2.6462   2.6511   2.6515   2.6700   2.6729   2.6928   2.6953   2.6972
     2.6991   2.7039   2.7130   2.7141   2.7195   2.7265   2.7356   2.7535
     2.7859   2.7888   2.7899   2.7970   2.8406   2.8413   2.8538   2.8585
     2.8855   2.8971   2.8988   2.9050   2.9058   2.9154   2.9204   2.9490
[...]
     4.2248   4.2480   4.3254   4.3264   4.3408   4.6010   4.7039   4.7202
     4.7322   4.7327   4.8826   5.1749   5.2029   5.2045   5.6526   5.6873
     5.7172   5.7981   5.9422   5.9538   5.9550   6.0873   6.1002   6.1754
     6.2558   6.6185   6.6903   6.6972   6.8647   6.9799   6.9965   7.0734
     7.0787   7.2104   7.2484   7.4027   7.6240   7.7579   7.9209   7.9653
     8.4613   8.5091   8.5105   8.6133   8.7437   8.9750   9.1461   9.1660
     9.2204   9.3208   9.3442   9.4815   9.5019   9.6372   9.6891   9.7239
     9.8056   9.9312  10.0142  10.1214  10.1753  10.3660  10.4260  10.4598
    10.5194  10.6201  10.7343  10.8347  10.8816  11.0526  11.0836  11.1909
    11.2287  11.2552  11.4653  11.5010  11.5120  11.5988  11.6159  11.7102
    11.7331  11.8339  11.8748  11.8916  11.9931  12.0972  12.1275  12.1734
    12.2897  12.3832  12.4385  12.4546  12.5312  12.5791  12.6080  12.6425
    12.7135  12.7638  12.8347  12.8553  12.9440  13.0262  13.1604  13.2060
    13.2984  13.3197  13.3808  13.4312  13.4891  13.5392  13.5591  13.6432
    13.6879  13.6967

     the Fermi energy is     4.6458 ev

!    total energy              =  -21903.76637180 Ry
     Harris-Foulkes estimate   =  -21903.76637186 Ry
     estimated scf accuracy    <          9.2E-09 Ry

     The total energy is the sum of the following terms:

     one-electron contribution = -207699.60500160 Ry
     hartree contribution      =  104053.66973174 Ry
     xc contribution           =   -2143.21368789 Ry
     ewald contribution        =   83885.43529323 Ry
     smearing contrib. (-TS)   =      -0.05270728 Ry

     convergence has been achieved in  36 iterations

     General routines

     Parallel routines

      47h

   This run was terminated on:  10:34:20  21Nov2019

   JOB DONE.