     Program PWSCF v.6.3MaX starts on 22Nov2019 at  6:39:30

     R & G space division:  proc/nbgrp/npool/nimage =      16
     Waiting for input...
     Reading input from standard input

     Current dimensions of program PWSCF are:
     Max number of different atomic species (ntypx) = 10
     Max number of k-points (npk) =  40000
     Max angular momentum in pseudopotentials (lmaxx) =  3
     Message from routine iosys:
     minimal I/O required, wf_collect reset to FALSE

     IMPORTANT: XC functional enforced from input :
     Exchange-correlation      = VDW-DF ( 1  4  4  0 1 0)
     Any further DFT definition will be discarded
     Please, verify this is what you really want

     bravais-lattice index     =            0
     lattice parameter (alat)  =      14.8058  a.u.
     unit-cell volume          =   10282.4791 (a.u.)^3
     number of atoms/cell      =           66
     number of atomic types    =            3
     number of electrons       =      1056.00
     number of Kohn-Sham states=          634
     kinetic-energy cutoff     =      50.0000  Ry
     charge density cutoff     =     600.0000  Ry
     convergence threshold     =      1.0E-08
     mixing beta               =       0.3000
     number of iterations used =            8  plain     mixing
     Exchange-correlation      = VDW-DF ( 1  4  4  0 1 0)

     celldm(1)=  14.805786  celldm(2)=   0.000000  celldm(3)=   0.000000
     celldm(4)=   0.000000  celldm(5)=   0.000000  celldm(6)=   0.000000

     crystal axes: (cart. coord. in units of alat)
               a(1) = (   1.000000   0.000000   0.000000 )
               a(2) = (   0.500000   0.866025   0.000000 )
               a(3) = (   0.000000   0.000000   3.658245 )

     reciprocal axes: (cart. coord. in units 2 pi/alat)
               b(1) = (  1.000000 -0.577350  0.000000 )
               b(2) = (  0.000000  1.154701  0.000000 )
               b(3) = (  0.000000  0.000000  0.273355 )

     PseudoPot. # 1 for Cu read from file:
     /deac/thonhauserGrp/chakrad/calculations/atomandmolecule-qe6.2.1-i2012-C6modif/all_pbe_UPF_v1.5/cu_pbe_v1.2.uspp.F.UPF
     MD5 check sum: 6e991ff952a84172a2a52a1c1e996048
     Pseudo is Ultrasoft + core correction, Zval = 19.0
     Generated by new atomic code, or converted to UPF format
     Using radial grid of  867 points,  6 beta functions with:
                l(1) =   0
                l(2) =   0
                l(3) =   1
                l(4) =   1
                l(5) =   2
                l(6) =   2
     Q(r) pseudized with  8 coefficients,  rinner =    1.150   1.150   1.150
                                                       1.150   1.150

     PseudoPot. # 2 for C  read from file:
     /deac/thonhauserGrp/chakrad/calculations/atomandmolecule-qe6.2.1-i2012-C6modif/all_pbe_UPF_v1.5/c_pbe_v1.2.uspp.F.UPF
     MD5 check sum: d1aef80898a10debaa0f26306b886e00
     Pseudo is Ultrasoft + core correction, Zval =  4.0
     Generated by new atomic code, or converted to UPF format
     Using radial grid of  721 points,  4 beta functions with:
                l(1) =   0
                l(2) =   0
                l(3) =   1
                l(4) =   1
     Q(r) pseudized with  8 coefficients,  rinner =    1.100   1.100   1.100

     PseudoPot. # 3 for H  read from file:
     /deac/thonhauserGrp/chakrad/calculations/atomandmolecule-qe6.2.1-i2012-C6modif/all_pbe_UPF_v1.5/h_pbe_v1.4.uspp.F.UPF
     MD5 check sum: 761ae9a214b05c3daf00ab9f6b793d6f
     Pseudo is Ultrasoft, Zval =  1.0
     Generated by new atomic code, or converted to UPF format
     Using radial grid of  615 points,  2 beta functions with:
                l(1) =   0
                l(2) =   0
     Q(r) pseudized with  8 coefficients,  rinner =    0.700

     vdW kernel table read from file vdW_kernel_table
     MD5 check sum: cc9485f6209b1096fbef62427c856dab

     atomic species   valence    mass     pseudopotential
        Cu            19.00     1.00000     Cu( 1.00)
        C              4.00     1.00000     C ( 1.00)
        H              1.00     1.00000     H ( 1.00)

     No symmetry found

   Cartesian axes

     site n.     atom                  positions (alat units)
         1           Cu  tau(   1) = (   0.1666667   0.0962250   0.2552686  )
         2           Cu  tau(   2) = (   0.5000000   0.0962250   0.2552686  )
         3           Cu  tau(   3) = (   0.8333333   0.0962250   0.2552686  )
         4           Cu  tau(   4) = (   0.3333333   0.3849002   0.2552686  )
         5           Cu  tau(   5) = (   0.6666667   0.3849002   0.2552686  )
         6           Cu  tau(   6) = (   1.0000000   0.3849002   0.2552686  )
         7           Cu  tau(   7) = (   0.5000000   0.6735753   0.2552686  )
         8           Cu  tau(   8) = (   0.8333333   0.6735753   0.2552686  )
         9           Cu  tau(   9) = (   1.1666667   0.6735753   0.2552686  )
        10           Cu  tau(  10) = (   0.0000000   0.1924501   0.5274341  )
        11           Cu  tau(  11) = (   0.3333333   0.1924501   0.5274341  )
        12           Cu  tau(  12) = (   0.6666667   0.1924501   0.5274341  )
        13           Cu  tau(  13) = (   0.1666667   0.4811252   0.5274341  )
        14           Cu  tau(  14) = (   0.5000000   0.4811252   0.5274341  )
        15           Cu  tau(  15) = (   0.8333333   0.4811252   0.5274341  )
        16           Cu  tau(  16) = (   0.3333333   0.7698004   0.5274341  )
        17           Cu  tau(  17) = (   0.6666667   0.7698004   0.5274341  )
        18           Cu  tau(  18) = (   1.0000000   0.7698004   0.5274341  )
        19           Cu  tau(  19) = (   0.0000000   0.0000000   0.7995997  )
        20           Cu  tau(  20) = (   0.3333333   0.0000000   0.7995997  )
        21           Cu  tau(  21) = (   0.6666667   0.0000000   0.7995997  )
        22           Cu  tau(  22) = (   0.1666667   0.2886751   0.7995997  )
        23           Cu  tau(  23) = (   0.5000000   0.2886751   0.7995997  )
        24           Cu  tau(  24) = (   0.8333333   0.2886751   0.7995997  )
        25           Cu  tau(  25) = (   0.3333333   0.5773503   0.7995997  )
        26           Cu  tau(  26) = (   0.6666667   0.5773503   0.7995997  )
        27           Cu  tau(  27) = (   1.0000000   0.5773503   0.7995997  )
        28           Cu  tau(  28) = (   0.1666659   0.0962246   1.0691130  )
        29           Cu  tau(  29) = (   0.5000000   0.0962241   1.0691104  )
        30           Cu  tau(  30) = (   0.8333341   0.0962246   1.0691130  )
        31           Cu  tau(  31) = (   0.3333325   0.3849006   1.0691104  )
        32           Cu  tau(  32) = (   0.6666675   0.3849006   1.0691104  )
        33           Cu  tau(  33) = (   1.0000000   0.3849003   1.0691143  )
        34           Cu  tau(  34) = (   0.5000000   0.6735762   1.0691130  )
        35           Cu  tau(  35) = (   0.8333334   0.6735753   1.0691143  )
        36           Cu  tau(  36) = (   1.1666666   0.6735753   1.0691143  )
        37           Cu  tau(  37) = (   0.0000000   0.1924486   1.3387540  )
        38           Cu  tau(  38) = (   0.3333330   0.1924499   1.3387465  )
        39           Cu  tau(  39) = (   0.6666670   0.1924499   1.3387465  )
        40           Cu  tau(  40) = (   0.1666676   0.4811247   1.3387504  )
        41           Cu  tau(  41) = (   0.5000000   0.4811256   1.3387465  )
        42           Cu  tau(  42) = (   0.8333324   0.4811247   1.3387504  )
        43           Cu  tau(  43) = (   0.3333346   0.7698011   1.3387540  )
        44           Cu  tau(  44) = (   0.6666654   0.7698011   1.3387540  )
        45           Cu  tau(  45) = (   1.0000000   0.7698014   1.3387504  )
        46           Cu  tau(  46) = (   0.0000000   0.0000000   1.6083750  )
        47           Cu  tau(  47) = (   0.3333333   0.0000005   1.6083624  )
        48           Cu  tau(  48) = (   0.6666667   0.0000005   1.6083624  )
        49           Cu  tau(  49) = (   0.1666671   0.2886748   1.6083624  )
        50           Cu  tau(  50) = (   0.5000000   0.2886751   1.6083553  )
        51           Cu  tau(  51) = (   0.8333329   0.2886748   1.6083624  )
        52           Cu  tau(  52) = (   0.3333338   0.5773500   1.6083624  )
        53           Cu  tau(  53) = (   0.6666662   0.5773500   1.6083624  )
        54           Cu  tau(  54) = (   1.0000000   0.5773503   1.6083570  )
        55           C   tau(  55) = (   0.6567407   0.3959883   1.9976025  )
        56           C   tau(  56) = (   0.5046394   0.3028152   1.9976025  )
        57           C   tau(  57) = (   0.3478975   0.3879497   1.9976025  )
        58           C   tau(  58) = (   0.3432593   0.5662630   1.9976025  )
        59           C   tau(  59) = (   0.4953606   0.6594361   1.9976025  )
        60           C   tau(  60) = (   0.6521025   0.5743016   1.9976025  )
        61           H   tau(  61) = (   0.7789959   0.3295665   1.9976808  )
        62           H   tau(  62) = (   0.5082587   0.1637263   1.9976808  )
        63           H   tau(  63) = (   0.2292624   0.3152577   1.9976808  )
        64           H   tau(  64) = (   0.2210041   0.6326847   1.9976808  )
        65           H   tau(  65) = (   0.4917413   0.7985249   1.9976808  )
        66           H   tau(  66) = (   0.7707376   0.6469936   1.9976808  )

     number of k points=    10  gaussian smearing, width (Ry)=  0.0200
                       cart. coord. in units 2pi/alat
        k(    1) = (   0.0000000   0.0000000   0.0000000), wk =   0.1250000
        k(    2) = (   0.0000000   0.2886751   0.0000000), wk =   0.2500000
        k(    3) = (   0.0000000  -0.5773503   0.0000000), wk =   0.1250000
        k(    4) = (   0.2500000  -0.7216878   0.0000000), wk =   0.2500000
        k(    5) = (  -0.2500000   0.1443376   0.0000000), wk =   0.2500000
        k(    6) = (   0.2500000   0.1443376   0.0000000), wk =   0.2500000
        k(    7) = (   0.5000000  -0.2886751   0.0000000), wk =   0.1250000
        k(    8) = (  -0.5000000  -0.2886751   0.0000000), wk =   0.1250000
        k(    9) = (  -0.2500000  -0.7216878   0.0000000), wk =   0.2500000
        k(   10) = (  -0.5000000  -0.5773503   0.0000000), wk =   0.2500000

     Initial potential from superposition of free atoms
     Check: negative starting charge=   -0.000797

     starting charge 1001.99960, renormalised to 1056.00000

     negative rho (up, down):  8.404E-04 0.000E+00

     %%%%%%%%%%%%%%%%%%%%%%%%%%%%%%%%%%%%%%%%%%%%%%%%%%%%%%%%%%%%%%%%%%%%%%%%
     %                                                                      %
     % You are using vdW-DF, which was implemented by the Thonhauser group. %
     % Please cite the following two papers that made this development      %
     % possible and the two reviews that describe the various versions:     %
     %                                                                      %
     %   T. Thonhauser et al., PRL 115, 136402 (2015).                      %
     %   T. Thonhauser et al., PRB 76, 125112 (2007).                       %
     %   K. Berland et al., Rep. Prog. Phys. 78, 066501 (2015).             %
     %   D.C. Langreth et al., J. Phys.: Condens. Matter 21, 084203 (2009). %
     %                                                                      %
     %                                                                      %
     % If you are calculating the stress with vdW-DF, please also cite:     %
     %                                                                      %
     %   R. Sabatini et al., J. Phys.: Condens. Matter 24, 424209 (2012).   %
     %                                                                      %
     %%%%%%%%%%%%%%%%%%%%%%%%%%%%%%%%%%%%%%%%%%%%%%%%%%%%%%%%%%%%%%%%%%%%%%%%

     Starting wfcs are  732 randomized atomic wfcs

     Self-consistent Calculation

     iteration #  1     ecut=    50.00 Ry     beta= 0.30
     Davidson diagonalization with overlap
     ethr =  1.00E-02,  avg # of iterations =  6.1

[...]

     total energy              =  -18847.57978198 Ry
     Harris-Foulkes estimate   =  -22010.21079135 Ry
     estimated scf accuracy    <    6250.14472765 Ry

[...]

     total energy              =  -21903.75863368 Ry
     Harris-Foulkes estimate   =  -21903.75863368 Ry
     estimated scf accuracy    <       0.00000002 Ry

     iteration # 42     ecut=    50.00 Ry     beta= 0.30
     Davidson diagonalization with overlap
     ethr =  9.76E-13,  avg # of iterations =  1.0

     negative rho (up, down):  2.608E-03 0.000E+00

     End of self-consistent calculation

          k = 0.0000 0.0000 0.0000 ( 61453 PWs)   bands (ev):

  -107.7494-107.7440-107.7391-107.7391-107.7382-107.7381-107.7378-107.7378
  -107.7364-107.7353-107.7353-107.7346-107.7346-107.7339-107.7339-107.7339
  -107.7333-107.7328-107.7302-107.7302-107.7296-107.7280-107.7280-107.7266
  -107.7246-107.7246-107.7243-107.7209-107.7193-107.7191-107.7191-107.7191
  -107.7191-107.7178-107.7168-107.7143-107.5508-107.5480-107.5480-107.5334
  -107.5309-107.5309-107.5198-107.5174-107.5174-107.4846-107.4798-107.4798
  -107.4797-107.4791-107.4791-107.4791-107.4768-107.4768 -65.1998 -65.1891
   -65.1860 -65.1860 -65.1854 -65.1854 -65.1843 -65.1794 -65.1792 -65.1792
   -65.1778 -65.1778 -65.1770 -65.1767 -65.1767 -65.1745 -65.1740 -65.1740
   -65.1735 -65.1725 -65.1682 -65.1682 -65.1666 -65.1652 -65.1647 -65.1647
   -65.1635 -65.1635 -65.1634 -65.1627 -65.1627 -65.1615 -65.1615 -65.1609
   -65.1597 -65.1589 -65.1589 -65.1585 -65.1546 -65.1546 -65.1543 -65.1532
   -65.1528 -65.1528 -65.1523 -65.1523 -65.1497 -65.1487 -65.1487 -65.1466
   -65.1461 -65.1458 -65.1458 -65.1456 -65.1456 -65.1449 -65.1401 -65.1386
   -65.1386 -65.1378 -65.1378 -65.1369 -65.1367 -65.1367 -65.1363 -65.1360
   -65.1360 -65.1346 -65.1342 -65.1338 -65.1338 -65.1331 -65.1331 -65.1309
   -65.1308 -65.1279 -65.1279 -65.1278 -65.1278 -65.1272 -65.1272 -65.1260
   -65.1260 -65.1257 -65.1249 -65.1249 -65.1247 -65.1223 -65.1212 -65.1212
   -65.1211 -65.1199 -65.1199 -65.1198 -65.1187 -65.1187 -65.1135 -65.1135
   -65.1130 -65.1128 -65.1128 -65.1120 -65.1116 -65.1116 -65.1083 -65.1083
   -65.1015 -65.1015 -65.0002 -65.0002 -65.0001 -64.9906 -64.9865 -64.9865
   -64.9850 -64.9820 -64.9820 -64.9717 -64.9591 -64.9524 -64.9524 -64.9507
   -64.9507 -64.9431 -64.9394 -64.9390 -64.9390 -64.9388 -64.9384 -64.9384
   -64.9362 -64.9362 -64.9361 -64.9356 -64.9349 -64.9341 -64.9341 -64.9323
   -64.9323 -64.9131 -64.9108 -64.9108 -64.9037 -64.9037 -64.9036 -64.9035
   -64.9035 -64.9028 -64.8979 -64.8957 -64.8957 -64.8913 -64.8913 -64.8564
   -64.8520 -64.8520 -64.8519 -64.8512 -64.8512 -64.8511 -64.8490 -64.8490
   -12.9719 -10.2145 -10.2142  -6.6084  -6.6079  -4.6797  -4.0112  -3.3961
    -3.0668  -2.7011  -2.4598  -2.0401  -2.0400  -1.4051  -1.0562  -1.0458
    -1.0458  -1.0451  -1.0451  -1.0451  -0.9361  -0.6453  -0.6453  -0.6432
    -0.6432  -0.6424  -0.6304  -0.3941  -0.1533  -0.1533  -0.1492  -0.1492
    -0.1463  -0.1436  -0.1237  -0.0926  -0.0924   0.2987   0.2987   0.3070
     0.3089   0.3089   0.3148   0.6473   0.6473   0.6567   0.6571   0.6571
     0.6617   0.7826   0.7826   0.7846   0.7854   0.7854   0.7869   0.8317
     0.8317   0.8337   0.8337   0.8340   0.8354   0.8646   0.8646   0.8786
     0.8786   0.8861   0.8863   0.9821   0.9824   0.9934   0.9934   1.0016
     1.0016   1.0061   1.0089   1.0089   1.0110   1.0233   1.0233   1.0246
     1.0246   1.0624   1.0624   1.1171   1.1171   1.2011   1.2011   1.2158
     1.2158   1.2195   1.2205   1.2205   1.2233   1.2616   1.2616   1.4219
     1.4219   1.4565   1.4565   1.4579   1.4596   1.5616   1.5616   1.5940
     1.5940   1.6021   1.6021   1.6128   1.6128   1.6138   1.6153   1.6506
     1.6508   1.6562   1.6695   1.6696   1.6730   1.7264   1.7264   1.7274
     1.7278   1.7389   1.7390   1.7438   1.7438   1.7684   1.7684   1.7946
     1.8049   1.8049   1.8110   1.8110   1.8111   1.8139   1.8326   1.8326
     1.8544   1.8544   1.8643   1.8652   1.8652   1.8659   1.8738   1.8738
     1.8862   1.8863   1.8863   1.8876   1.8879   1.8879   1.8938   1.8938
     1.9048   1.9800   1.9800   1.9952   1.9953   2.0092   2.0092   2.0104
     2.0145   2.0337   2.0337   2.0365   2.0365   2.0623   2.0623   2.0655
     2.0658   2.0859   2.0859   2.0861   2.0878   2.0878   2.0878   2.0886
     2.0886   2.2674   2.2674   2.2686   2.2747   2.3147   2.3147   2.3412
     2.3420   2.3420   2.3442   2.3442   2.3444   2.3917   2.3917   2.3970
     2.4001   2.4241   2.4241   2.4259   2.4259   2.4446   2.4446   2.4496
     2.4497   2.5057   2.5154   2.5154   2.5392   2.5392   2.5423   2.5426
     2.5426   2.5530   2.5591   2.5591   2.5685   2.5686   2.5718   2.5742
     2.5742   2.5746   2.5747   2.5751   2.5843   2.5843   2.6476   2.6476
     2.7142   2.7147   2.7147   2.7159   2.7161   2.7161   2.7682   2.7694
     2.7694   2.7712   2.7758   2.7758   2.7759   2.7766   2.7770   2.7770
     2.7819   2.7819   2.8314   2.8314   2.8414   2.8426   2.8426   2.8439
     2.8439   2.8444   2.8550   2.8551   2.8551   2.8560   2.8563   2.8563
     2.8768   2.8768   2.8768   2.8772   2.8777   2.8777   2.8938   2.8938
[...]
     3.1192   3.1192   3.1255   3.1255   3.9529   4.0337   4.0337   4.0406
     4.0951   4.1133   4.1133   4.5911   5.4420   5.4420   5.4671   5.5172
     5.5593   5.5594   6.8522   6.8524   7.0022   7.2206   7.3279   7.3768
     7.3768   7.4414   7.4415   7.9136   7.9136   7.9144   7.9147   7.9311
     7.9311   8.1887   8.3041   8.3041   8.3284   8.3284   8.4483   8.7060
     8.7113   8.8068   8.8922   8.8922   8.9651   8.9660   9.0154   9.1722
     9.1722   9.3643   9.4358   9.5942   9.5942   9.6072   9.6072   9.8644
     9.8645   9.8975   9.9763   9.9801  10.5524  10.5806  10.7068  10.7068
    10.7734  10.7734  10.8713  10.8713  10.9651  10.9651  11.0208  11.0208
    11.0352  11.1535  11.1965  11.3514  11.3514  11.4179  11.4179  11.4431
    11.5381  11.6137  11.6137  11.7776  11.8378  11.8378  11.8882  11.8882
    11.9489  11.9814  11.9815  12.0033  12.0033  12.0463  12.1397  12.2321
    12.2321  12.2757  12.3090  12.3789  12.3790  12.5465  12.5465  12.7807
    12.8705  12.8802  12.8803  13.0335  13.0336  13.0597  13.0629  13.0989
    13.1842  13.1959

[...]

          k =-0.2500 0.1443 0.0000 ( 61417 PWs)   bands (ev):

[...]

          k = 0.5000-0.2887 0.0000 ( 61408 PWs)   bands (ev):

[...]

          k =-0.5000-0.5774 0.0000 ( 61343 PWs)   bands (ev):

  -107.7492-107.7430-107.7411-107.7405-107.7379-107.7375-107.7370-107.7364
  -107.7363-107.7359-107.7352-107.7349-107.7346-107.7340-107.7338-107.7334
  -107.7330-107.7325-107.7314-107.7308-107.7294-107.7277-107.7276-107.7265
  -107.7247-107.7245-107.7236-107.7216-107.7207-107.7194-107.7193-107.7183
  -107.7180-107.7174-107.7172-107.7143-107.5507-107.5481-107.5480-107.5335
  -107.5309-107.5308-107.5199-107.5174-107.5173-107.4833-107.4819-107.4816
  -107.4791-107.4786-107.4780-107.4778-107.4773-107.4771 -65.1961 -65.1921
   -65.1902 -65.1899 -65.1888 -65.1886 -65.1877 -65.1864 -65.1852 -65.1832
   -65.1828 -65.1819 -65.1791 -65.1780 -65.1771 -65.1763 -65.1762 -65.1740
   -65.1731 -65.1707 -65.1703 -65.1700 -65.1694 -65.1684 -65.1676 -65.1673
   -65.1662 -65.1655 -65.1635 -65.1625 -65.1600 -65.1578 -65.1575 -65.1565
   -65.1546 -65.1541 -65.1536 -65.1527 -65.1525 -65.1505 -65.1496 -65.1491
   -65.1488 -65.1478 -65.1470 -65.1467 -65.1449 -65.1438 -65.1434 -65.1428
   -65.1425 -65.1424 -65.1421 -65.1411 -65.1406 -65.1400 -65.1394 -65.1390
   -65.1383 -65.1375 -65.1368 -65.1366 -65.1365 -65.1358 -65.1346 -65.1339
   -65.1336 -65.1330 -65.1325 -65.1323 -65.1320 -65.1315 -65.1308 -65.1306
   -65.1305 -65.1299 -65.1293 -65.1287 -65.1284 -65.1274 -65.1273 -65.1268
   -65.1259 -65.1258 -65.1255 -65.1251 -65.1247 -65.1246 -65.1245 -65.1241
   -65.1228 -65.1218 -65.1216 -65.1202 -65.1195 -65.1191 -65.1187 -65.1185
   -65.1180 -65.1176 -65.1158 -65.1151 -65.1146 -65.1139 -65.1105 -65.1087
   -65.1083 -65.1046 -65.0076 -65.0060 -65.0040 -64.9932 -64.9880 -64.9853
   -64.9752 -64.9740 -64.9699 -64.9641 -64.9603 -64.9562 -64.9548 -64.9531
   -64.9524 -64.9521 -64.9494 -64.9482 -64.9450 -64.9428 -64.9401 -64.9390
   -64.9387 -64.9363 -64.9348 -64.9324 -64.9323 -64.9194 -64.9174 -64.9165
   -64.9164 -64.9131 -64.9109 -64.9108 -64.9108 -64.9106 -64.9100 -64.9097
   -64.9033 -64.8987 -64.8986 -64.8980 -64.8957 -64.8956 -64.8946 -64.8552
   -64.8539 -64.8535 -64.8513 -64.8507 -64.8502 -64.8500 -64.8495 -64.8493
   -12.9703 -10.2198 -10.2174  -6.6109  -6.6025  -4.6249  -3.3782  -3.0108
    -2.7800  -2.7084  -2.5731  -2.5719  -2.1302  -2.0887  -2.0063  -1.9890
    -1.8662  -1.2375  -1.1450  -0.9848  -0.6869  -0.5608  -0.5592  -0.2192
    -0.2125  -0.1986  -0.1479  -0.1353  -0.1194   0.0306   0.0308   0.0415
     0.2005   0.2040   0.2253   0.2257   0.2414   0.2916   0.3018   0.3023
     0.3207   0.4196   0.4216   0.4234   0.4242   0.4878   0.4999   0.5591
     0.5634   0.5737   0.5851   0.6149   0.6151   0.6166   0.6341   0.6360
     0.6908   0.6934   0.7283   0.7300   0.7587   0.7588   0.7881   0.7942
     0.7963   0.8550   0.8562   0.8870   0.9069   0.9242   0.9250   0.9899
     0.9996   1.0493   1.0685   1.0702   1.0905   1.0929   1.1530   1.1593
     1.1646   1.1810   1.1817   1.1885   1.2320   1.2557   1.2584   1.2999
     1.3027   1.3169   1.3257   1.3285   1.3337   1.3521   1.3529   1.3962
     1.4057   1.4109   1.4144   1.4188   1.4280   1.4451   1.4495   1.4514
     1.4587   1.4752   1.4820   1.5015   1.5080   1.5129   1.5282   1.5608
     1.5691   1.5761   1.6044   1.6088   1.6095   1.6222   1.6362   1.6436
     1.6577   1.6678   1.6881   1.7008   1.7016   1.7095   1.7207   1.7217
     1.7387   1.7541   1.7586   1.7628   1.7633   1.7987   1.8051   1.8089
     1.8093   1.8169   1.8269   1.8363   1.8388   1.8544   1.8561   1.8672
     1.8698   1.8915   1.9019   1.9183   1.9218   1.9341   1.9400   1.9460
     1.9469   1.9553   1.9594   1.9673   1.9680   1.9697   1.9807   1.9818
     1.9901   2.0010   2.0076   2.0135   2.0343   2.0384   2.0487   2.0536
     2.0687   2.0701   2.0718   2.0740   2.0756   2.0793   2.0814   2.0866
     2.0869   2.0972   2.1509   2.1520   2.2106   2.2142   2.2154   2.2201
     2.2240   2.2282   2.2463   2.2478   2.2716   2.2798   2.2841   2.2955
     2.3128   2.3150   2.3519   2.3529   2.3568   2.3852   2.3860   2.3871
     2.3880   2.3887   2.3917   2.3939   2.3972   2.4069   2.4245   2.4268
     2.4635   2.4665   2.4746   2.4749   2.4817   2.4883   2.4976   2.5189
     2.5243   2.5293   2.5405   2.5576   2.5615   2.5799   2.5911   2.5919
     2.6034   2.6078   2.6337   2.6397   2.6454   2.6555   2.6767   2.6805
     2.6982   2.7024   2.7033   2.7214   2.7264   2.7431   2.7486   2.7512
     2.7529   2.7583   2.7620   2.7653   2.7722   2.7795   2.7945   2.8125
     2.8393   2.8411   2.8420   2.8534   2.8921   2.8936   2.9070   2.9146
     2.9381   2.9505   2.9537   2.9597   2.9612   2.9654   2.9728   3.0031
[...]
     4.2828   4.3179   4.3784   4.3805   4.3964   4.6540   4.7501   4.7763
     4.7852   4.7858   4.9596   5.2227   5.2517   5.2554   5.7072   5.7354
     5.7734   5.8905   5.9818   5.9967   6.0019   6.1401   6.1538   6.2170
     6.3063   6.6462   6.7095   6.7327   6.8960   6.9766   7.0628   7.0708
     7.1217   7.1829   7.2260   7.4545   7.6723   7.7373   7.9764   8.0081
     8.4573   8.5604   8.5649   8.6677   8.7523   8.9212   9.1600   9.1752
     9.2433   9.3415   9.3762   9.5072   9.5392   9.6190   9.7283   9.7619
     9.8175   9.9932  10.0350  10.1328  10.1917  10.3880  10.4205  10.4879
    10.5362  10.6425  10.7923  10.8821  10.9340  11.0097  11.1026  11.2046
    11.2105  11.2695  11.4514  11.5460  11.5580  11.6217  11.6292  11.7221
    11.7715  11.8717  11.9093  11.9482  11.9764  12.0873  12.1255  12.1989
    12.3071  12.3945  12.4742  12.4876  12.5755  12.6106  12.6450  12.6925
    12.7246  12.8033  12.8273  12.8691  12.9536  13.0773  13.1591  13.1799
    13.3192  13.3400  13.3883  13.4370  13.5041  13.5639  13.6029  13.6636
    13.7138  13.7317

     the Fermi energy is     4.7011 ev

!    total energy              =  -21903.75863369 Ry
     Harris-Foulkes estimate   =  -21903.75863368 Ry
     estimated scf accuracy    <          6.7E-10 Ry

     The total energy is the sum of the following terms:

     one-electron contribution = -208491.18323222 Ry
     hartree contribution      =  104451.30271729 Ry
     xc contribution           =   -2143.25443899 Ry
     ewald contribution        =   84279.42926330 Ry
     smearing contrib. (-TS)   =      -0.05294306 Ry

     convergence has been achieved in  42 iterations

     General routines

     Parallel routines

      26h

   This run was terminated on:  12: 5:59  22Nov2019

   JOB DONE.