     Program PWSCF v.6.3MaX starts on 18Nov2019 at 16:57:28

     R & G space division:  proc/nbgrp/npool/nimage =      16
     Waiting for input...
     Reading input from standard input

     Current dimensions of program PWSCF are:
     Max number of different atomic species (ntypx) = 10
     Max number of k-points (npk) =  40000
     Max angular momentum in pseudopotentials (lmaxx) =  3
     Message from routine iosys:
     minimal I/O required, wf_collect reset to FALSE

     IMPORTANT: XC functional enforced from input :
     Exchange-correlation      = VDW-DF ( 1  4  4  0 1 0)
     Any further DFT definition will be discarded
     Please, verify this is what you really want

     bravais-lattice index     =            0
     lattice parameter (alat)  =      14.8058  a.u.
     unit-cell volume          =   10282.4791 (a.u.)^3
     number of atoms/cell      =           66
     number of atomic types    =            3
     number of electrons       =      1056.00
     number of Kohn-Sham states=          634
     kinetic-energy cutoff     =      50.0000  Ry
     charge density cutoff     =     600.0000  Ry
     convergence threshold     =      1.0E-08
     mixing beta               =       0.3000
     number of iterations used =            8  plain     mixing
     Exchange-correlation      = VDW-DF ( 1  4  4  0 1 0)

     celldm(1)=  14.805786  celldm(2)=   0.000000  celldm(3)=   0.000000
     celldm(4)=   0.000000  celldm(5)=   0.000000  celldm(6)=   0.000000

     crystal axes: (cart. coord. in units of alat)
               a(1) = (   1.000000   0.000000   0.000000 )
               a(2) = (   0.500000   0.866025   0.000000 )
               a(3) = (   0.000000   0.000000   3.658245 )

     reciprocal axes: (cart. coord. in units 2 pi/alat)
               b(1) = (  1.000000 -0.577350  0.000000 )
               b(2) = (  0.000000  1.154701  0.000000 )
               b(3) = (  0.000000  0.000000  0.273355 )

     PseudoPot. # 1 for Cu read from file:
     /deac/thonhauserGrp/chakrad/calculations/atomandmolecule-qe6.2.1-i2012-C6modif/all_pbe_UPF_v1.5/cu_pbe_v1.2.uspp.F.UPF
     MD5 check sum: 6e991ff952a84172a2a52a1c1e996048
     Pseudo is Ultrasoft + core correction, Zval = 19.0
     Generated by new atomic code, or converted to UPF format
     Using radial grid of  867 points,  6 beta functions with:
                l(1) =   0
                l(2) =   0
                l(3) =   1
                l(4) =   1
                l(5) =   2
                l(6) =   2
     Q(r) pseudized with  8 coefficients,  rinner =    1.150   1.150   1.150
                                                       1.150   1.150

     PseudoPot. # 2 for C  read from file:
     /deac/thonhauserGrp/chakrad/calculations/atomandmolecule-qe6.2.1-i2012-C6modif/all_pbe_UPF_v1.5/c_pbe_v1.2.uspp.F.UPF
     MD5 check sum: d1aef80898a10debaa0f26306b886e00
     Pseudo is Ultrasoft + core correction, Zval =  4.0
     Generated by new atomic code, or converted to UPF format
     Using radial grid of  721 points,  4 beta functions with:
                l(1) =   0
                l(2) =   0
                l(3) =   1
                l(4) =   1
     Q(r) pseudized with  8 coefficients,  rinner =    1.100   1.100   1.100

     PseudoPot. # 3 for H  read from file:
     /deac/thonhauserGrp/chakrad/calculations/atomandmolecule-qe6.2.1-i2012-C6modif/all_pbe_UPF_v1.5/h_pbe_v1.4.uspp.F.UPF
     MD5 check sum: 761ae9a214b05c3daf00ab9f6b793d6f
     Pseudo is Ultrasoft, Zval =  1.0
     Generated by new atomic code, or converted to UPF format
     Using radial grid of  615 points,  2 beta functions with:
                l(1) =   0
                l(2) =   0
     Q(r) pseudized with  8 coefficients,  rinner =    0.700

     vdW kernel table read from file vdW_kernel_table
     MD5 check sum: cc9485f6209b1096fbef62427c856dab

     atomic species   valence    mass     pseudopotential
        Cu            19.00     1.00000     Cu( 1.00)
        C              4.00     1.00000     C ( 1.00)
        H              1.00     1.00000     H ( 1.00)

     No symmetry found

   Cartesian axes

     site n.     atom                  positions (alat units)
         1           Cu  tau(   1) = (   0.1666667   0.0962250   0.2552686  )
         2           Cu  tau(   2) = (   0.5000000   0.0962250   0.2552686  )
         3           Cu  tau(   3) = (   0.8333333   0.0962250   0.2552686  )
         4           Cu  tau(   4) = (   0.3333333   0.3849002   0.2552686  )
         5           Cu  tau(   5) = (   0.6666667   0.3849002   0.2552686  )
         6           Cu  tau(   6) = (   1.0000000   0.3849002   0.2552686  )
         7           Cu  tau(   7) = (   0.5000000   0.6735753   0.2552686  )
         8           Cu  tau(   8) = (   0.8333333   0.6735753   0.2552686  )
         9           Cu  tau(   9) = (   1.1666667   0.6735753   0.2552686  )
        10           Cu  tau(  10) = (   0.0000000   0.1924501   0.5274341  )
        11           Cu  tau(  11) = (   0.3333333   0.1924501   0.5274341  )
        12           Cu  tau(  12) = (   0.6666667   0.1924501   0.5274341  )
        13           Cu  tau(  13) = (   0.1666667   0.4811252   0.5274341  )
        14           Cu  tau(  14) = (   0.5000000   0.4811252   0.5274341  )
        15           Cu  tau(  15) = (   0.8333333   0.4811252   0.5274341  )
        16           Cu  tau(  16) = (   0.3333333   0.7698004   0.5274341  )
        17           Cu  tau(  17) = (   0.6666667   0.7698004   0.5274341  )
        18           Cu  tau(  18) = (   1.0000000   0.7698004   0.5274341  )
        19           Cu  tau(  19) = (   0.0000000   0.0000000   0.7995997  )
        20           Cu  tau(  20) = (   0.3333333   0.0000000   0.7995997  )
        21           Cu  tau(  21) = (   0.6666667   0.0000000   0.7995997  )
        22           Cu  tau(  22) = (   0.1666667   0.2886751   0.7995997  )
        23           Cu  tau(  23) = (   0.5000000   0.2886751   0.7995997  )
        24           Cu  tau(  24) = (   0.8333333   0.2886751   0.7995997  )
        25           Cu  tau(  25) = (   0.3333333   0.5773503   0.7995997  )
        26           Cu  tau(  26) = (   0.6666667   0.5773503   0.7995997  )
        27           Cu  tau(  27) = (   1.0000000   0.5773503   0.7995997  )
        28           Cu  tau(  28) = (   0.1666659   0.0962246   1.0691130  )
        29           Cu  tau(  29) = (   0.5000000   0.0962241   1.0691104  )
        30           Cu  tau(  30) = (   0.8333341   0.0962246   1.0691130  )
        31           Cu  tau(  31) = (   0.3333325   0.3849006   1.0691104  )
        32           Cu  tau(  32) = (   0.6666675   0.3849006   1.0691104  )
        33           Cu  tau(  33) = (   1.0000000   0.3849003   1.0691143  )
        34           Cu  tau(  34) = (   0.5000000   0.6735762   1.0691130  )
        35           Cu  tau(  35) = (   0.8333334   0.6735753   1.0691143  )
        36           Cu  tau(  36) = (   1.1666666   0.6735753   1.0691143  )
        37           Cu  tau(  37) = (   0.0000000   0.1924486   1.3387540  )
        38           Cu  tau(  38) = (   0.3333330   0.1924499   1.3387465  )
        39           Cu  tau(  39) = (   0.6666670   0.1924499   1.3387465  )
        40           Cu  tau(  40) = (   0.1666676   0.4811247   1.3387504  )
        41           Cu  tau(  41) = (   0.5000000   0.4811256   1.3387465  )
        42           Cu  tau(  42) = (   0.8333324   0.4811247   1.3387504  )
        43           Cu  tau(  43) = (   0.3333346   0.7698011   1.3387540  )
        44           Cu  tau(  44) = (   0.6666654   0.7698011   1.3387540  )
        45           Cu  tau(  45) = (   1.0000000   0.7698014   1.3387504  )
        46           Cu  tau(  46) = (   0.0000000   0.0000000   1.6083750  )
        47           Cu  tau(  47) = (   0.3333333   0.0000005   1.6083624  )
        48           Cu  tau(  48) = (   0.6666667   0.0000005   1.6083624  )
        49           Cu  tau(  49) = (   0.1666671   0.2886748   1.6083624  )
        50           Cu  tau(  50) = (   0.5000000   0.2886751   1.6083553  )
        51           Cu  tau(  51) = (   0.8333329   0.2886748   1.6083624  )
        52           Cu  tau(  52) = (   0.3333338   0.5773500   1.6083624  )
        53           Cu  tau(  53) = (   0.6666662   0.5773500   1.6083624  )
        54           Cu  tau(  54) = (   1.0000000   0.5773503   1.6083570  )
        55           C   tau(  55) = (   0.6567407   0.3959883   2.0805648  )
        56           C   tau(  56) = (   0.5046394   0.3028152   2.0805648  )
        57           C   tau(  57) = (   0.3478975   0.3879497   2.0805648  )
        58           C   tau(  58) = (   0.3432593   0.5662630   2.0805648  )
        59           C   tau(  59) = (   0.4953606   0.6594361   2.0805648  )
        60           C   tau(  60) = (   0.6521025   0.5743016   2.0805648  )
        61           H   tau(  61) = (   0.7789959   0.3295665   2.0806431  )
        62           H   tau(  62) = (   0.5082587   0.1637263   2.0806431  )
        63           H   tau(  63) = (   0.2292624   0.3152577   2.0806431  )
        64           H   tau(  64) = (   0.2210041   0.6326847   2.0806431  )
        65           H   tau(  65) = (   0.4917413   0.7985249   2.0806431  )
        66           H   tau(  66) = (   0.7707376   0.6469936   2.0806431  )

     number of k points=    10  gaussian smearing, width (Ry)=  0.0200
                       cart. coord. in units 2pi/alat
        k(    1) = (   0.0000000   0.0000000   0.0000000), wk =   0.1250000
        k(    2) = (   0.0000000   0.2886751   0.0000000), wk =   0.2500000
        k(    3) = (   0.0000000  -0.5773503   0.0000000), wk =   0.1250000
        k(    4) = (   0.2500000  -0.7216878   0.0000000), wk =   0.2500000
        k(    5) = (  -0.2500000   0.1443376   0.0000000), wk =   0.2500000
        k(    6) = (   0.2500000   0.1443376   0.0000000), wk =   0.2500000
        k(    7) = (   0.5000000  -0.2886751   0.0000000), wk =   0.1250000
        k(    8) = (  -0.5000000  -0.2886751   0.0000000), wk =   0.1250000
        k(    9) = (  -0.2500000  -0.7216878   0.0000000), wk =   0.2500000
        k(   10) = (  -0.5000000  -0.5773503   0.0000000), wk =   0.2500000

     Initial potential from superposition of free atoms
     Check: negative starting charge=   -0.000719

     starting charge 1001.99960, renormalised to 1056.00000

     negative rho (up, down):  7.576E-04 0.000E+00

     %%%%%%%%%%%%%%%%%%%%%%%%%%%%%%%%%%%%%%%%%%%%%%%%%%%%%%%%%%%%%%%%%%%%%%%%
     %                                                                      %
     % You are using vdW-DF, which was implemented by the Thonhauser group. %
     % Please cite the following two papers that made this development      %
     % possible and the two reviews that describe the various versions:     %
     %                                                                      %
     %   T. Thonhauser et al., PRL 115, 136402 (2015).                      %
     %   T. Thonhauser et al., PRB 76, 125112 (2007).                       %
     %   K. Berland et al., Rep. Prog. Phys. 78, 066501 (2015).             %
     %   D.C. Langreth et al., J. Phys.: Condens. Matter 21, 084203 (2009). %
     %                                                                      %
     %                                                                      %
     % If you are calculating the stress with vdW-DF, please also cite:     %
     %                                                                      %
     %   R. Sabatini et al., J. Phys.: Condens. Matter 24, 424209 (2012).   %
     %                                                                      %
     %%%%%%%%%%%%%%%%%%%%%%%%%%%%%%%%%%%%%%%%%%%%%%%%%%%%%%%%%%%%%%%%%%%%%%%%

     Starting wfcs are  732 randomized atomic wfcs

     Self-consistent Calculation

     iteration #  1     ecut=    50.00 Ry     beta= 0.30
     Davidson diagonalization with overlap
     ethr =  1.00E-02,  avg # of iterations =  5.7

[...]

     total energy              =  -19050.48137989 Ry
     Harris-Foulkes estimate   =  -22004.76115344 Ry
     estimated scf accuracy    <    5840.04561239 Ry

[...]

     total energy              =  -21903.76895823 Ry
     Harris-Foulkes estimate   =  -21903.76895824 Ry
     estimated scf accuracy    <       0.00000002 Ry

     iteration # 36     ecut=    50.00 Ry     beta= 0.30
     Davidson diagonalization with overlap
     ethr =  2.14E-12,  avg # of iterations =  2.0

     negative rho (up, down):  2.355E-03 0.000E+00

     End of self-consistent calculation

          k = 0.0000 0.0000 0.0000 ( 61453 PWs)   bands (ev):

  -107.8707-107.8662-107.8643-107.8642-107.8642-107.8638-107.8638-107.8633
  -107.8620-107.8606-107.8606-107.8605-107.8605-107.8600-107.8600-107.8596
  -107.8592-107.8590-107.8557-107.8547-107.8547-107.8547-107.8540-107.8540
  -107.8538-107.8517-107.8517-107.8499-107.8459-107.8452-107.8452-107.8451
  -107.8451-107.8445-107.8428-107.8425-107.6317-107.6276-107.6276-107.6271
  -107.6256-107.6256-107.6244-107.6223-107.6223-107.6112-107.6062-107.6062
  -107.6061-107.6060-107.6060-107.6060-107.6035-107.6035 -65.3250 -65.3120
   -65.3115 -65.3115 -65.3111 -65.3111 -65.3106 -65.3040 -65.3039 -65.3039
   -65.3035 -65.3035 -65.3031 -65.3031 -65.3029 -65.2997 -65.2997 -65.2997
   -65.2994 -65.2975 -65.2920 -65.2920 -65.2917 -65.2911 -65.2909 -65.2909
   -65.2892 -65.2891 -65.2891 -65.2888 -65.2888 -65.2884 -65.2882 -65.2882
   -65.2857 -65.2857 -65.2853 -65.2852 -65.2797 -65.2797 -65.2797 -65.2792
   -65.2791 -65.2791 -65.2783 -65.2783 -65.2748 -65.2748 -65.2732 -65.2717
   -65.2717 -65.2714 -65.2714 -65.2713 -65.2713 -65.2711 -65.2693 -65.2644
   -65.2644 -65.2634 -65.2634 -65.2633 -65.2630 -65.2630 -65.2629 -65.2613
   -65.2613 -65.2613 -65.2606 -65.2602 -65.2602 -65.2598 -65.2598 -65.2571
   -65.2571 -65.2535 -65.2531 -65.2531 -65.2530 -65.2530 -65.2530 -65.2528
   -65.2528 -65.2523 -65.2523 -65.2520 -65.2520 -65.2495 -65.2468 -65.2468
   -65.2464 -65.2461 -65.2461 -65.2461 -65.2460 -65.2460 -65.2403 -65.2403
   -65.2386 -65.2386 -65.2385 -65.2383 -65.2381 -65.2381 -65.2343 -65.2343
   -65.2276 -65.2276 -65.0844 -65.0840 -65.0840 -65.0829 -65.0829 -65.0824
   -65.0805 -65.0805 -65.0805 -65.0795 -65.0655 -65.0654 -65.0654 -65.0654
   -65.0653 -65.0653 -65.0628 -65.0628 -65.0625 -65.0623 -65.0490 -65.0484
   -65.0484 -65.0474 -65.0474 -65.0471 -65.0357 -65.0357 -65.0301 -65.0301
   -65.0300 -65.0300 -65.0300 -65.0299 -65.0178 -65.0178 -65.0072 -65.0036
   -65.0035 -65.0030 -65.0015 -65.0015 -65.0000 -64.9980 -64.9980 -64.9833
   -64.9785 -64.9785 -64.9785 -64.9784 -64.9784 -64.9784 -64.9760 -64.9760
   -12.5629  -9.8205  -9.8202  -6.2320  -6.2315  -4.3089  -4.1354  -3.5149
    -2.7164  -2.5641  -2.3166  -1.6701  -1.6700  -1.4366  -1.1701  -1.1698
    -1.1698  -1.1697  -1.1697  -1.1696  -0.7672  -0.7653  -0.7653  -0.7653
    -0.7652  -0.7652  -0.5998  -0.4075  -0.2678  -0.2650  -0.2650  -0.2649
    -0.2648  -0.2648  -0.2493   0.1854   0.1854   0.1855   0.1855   0.1861
     0.1884   0.2648   0.2651   0.5354   0.5354   0.5361   0.5363   0.5363
     0.5375   0.6610   0.6610   0.6612   0.6612   0.6612   0.6616   0.7106
     0.7106   0.7108   0.7109   0.7109   0.7113   0.7389   0.7389   0.7528
     0.7528   0.7641   0.7641   0.8598   0.8598   0.8675   0.8675   0.8889
     0.8889   0.8891   0.8894   0.8894   0.8899   0.8978   0.8978   0.8988
     0.8989   0.9493   0.9493   0.9907   0.9907   1.0984   1.0984   1.1021
     1.1021   1.1026   1.1027   1.1027   1.1035   1.1353   1.1353   1.3376
     1.3376   1.3388   1.3391   1.3391   1.3401   1.4682   1.4682   1.4763
     1.4763   1.4906   1.4906   1.4914   1.4914   1.4916   1.4922   1.5301
     1.5356   1.5357   1.5498   1.6041   1.6041   1.6049   1.6049   1.6049
     1.6053   1.6177   1.6178   1.6431   1.6431   1.6745   1.6796   1.6796
     1.6898   1.6898   1.6912   1.6912   1.6914   1.6918   1.7295   1.7295
     1.7422   1.7422   1.7427   1.7427   1.7428   1.7431   1.7619   1.7620
     1.7620   1.7624   1.7624   1.7624   1.7683   1.7683   1.7852   1.8809
     1.8809   1.8884   1.8884   1.8927   1.8927   1.8929   1.8942   1.9070
     1.9070   1.9152   1.9158   1.9354   1.9354   1.9388   1.9389   1.9627
     1.9627   1.9641   1.9641   1.9641   1.9645   1.9646   1.9647   2.1172
     2.1172   2.1575   2.1576   2.1576   2.1600   2.2227   2.2229   2.2229
     2.2231   2.2231   2.2232   2.2396   2.2397   2.2887   2.2887   2.2892
     2.2908   2.2983   2.2983   2.3024   2.3024   2.3243   2.3243   2.3592
     2.3593   2.3640   2.3905   2.3905   2.4200   2.4200   2.4280   2.4280
     2.4281   2.4300   2.4492   2.4492   2.4533   2.4534   2.4534   2.4537
     2.4537   2.4537   2.4576   2.4576   2.4595   2.4595   2.5279   2.5279
     2.5923   2.5924   2.5924   2.5925   2.5926   2.5926   2.6496   2.6502
     2.6502   2.6515   2.6516   2.6516   2.6516   2.6518   2.6518   2.6518
     2.6571   2.6571   2.7161   2.7161   2.7205   2.7205   2.7206   2.7208
     2.7210   2.7210   2.7319   2.7320   2.7320   2.7322   2.7323   2.7323
     2.7564   2.7565   2.7565   2.7567   2.7567   2.7568   2.7885   2.7885
[...]
     2.9964   2.9969   2.9969   2.9969   3.8149   3.9284   3.9284   3.9289
     3.9412   3.9516   3.9516   4.4011   5.3588   5.3588   5.3629   5.3782
     5.3939   5.3939   7.0479   7.0480   7.0609   7.1369   7.2027   7.2027
     7.2664   7.4933   7.4935   7.7895   7.7895   7.7897   7.7897   7.8052
     7.8052   8.1652   8.1833   8.1833   8.2027   8.2027   8.5040   8.6020
     8.6028   8.7795   8.8593   8.8598   8.8645   8.8645   8.9706   8.9706
     8.9933   9.2091   9.4759   9.4759   9.4814   9.4814   9.4939   9.7991
     9.7993   9.8593   9.8598   9.8744  10.5523  10.5608  10.6405  10.6405
    10.6514  10.6514  10.7958  10.7958  10.8428  10.8428  10.8685  11.0605
    11.1651  11.1652  11.2876  11.2876  11.2884  11.3014  11.3014  11.3178
    11.4281  11.6943  11.6943  11.7899  11.7978  11.7978  11.8472  11.8472
    11.8666  11.8666  11.8693  11.9405  11.9405  12.0229  12.0986  12.2130
    12.2131  12.2401  12.3139  12.3139  12.3236  12.4557  12.4557  12.6956
    12.9129  12.9129  12.9134  12.9824  12.9865  12.9865  12.9933  13.0307
    13.0752  13.0904

[...]

          k =-0.2500 0.1443 0.0000 ( 61417 PWs)   bands (ev):

[...]

          k = 0.5000-0.2887 0.0000 ( 61408 PWs)   bands (ev):

[...]

          k =-0.5000-0.5774 0.0000 ( 61343 PWs)   bands (ev):

  -107.8692-107.8676-107.8668-107.8648-107.8632-107.8631-107.8628-107.8621
  -107.8619-107.8614-107.8612-107.8608-107.8607-107.8599-107.8597-107.8592
  -107.8590-107.8580-107.8568-107.8563-107.8557-107.8540-107.8535-107.8530
  -107.8528-107.8521-107.8519-107.8487-107.8475-107.8470-107.8449-107.8444
  -107.8439-107.8436-107.8434-107.8427-107.6307-107.6291-107.6283-107.6268
  -107.6253-107.6251-107.6242-107.6225-107.6223-107.6099-107.6084-107.6084
  -107.6055-107.6054-107.6044-107.6044-107.6043-107.6040 -65.3209 -65.3164
   -65.3159 -65.3151 -65.3148 -65.3138 -65.3135 -65.3122 -65.3105 -65.3089
   -65.3086 -65.3076 -65.3048 -65.3030 -65.3025 -65.3024 -65.3022 -65.2997
   -65.2968 -65.2961 -65.2960 -65.2959 -65.2956 -65.2941 -65.2939 -65.2930
   -65.2922 -65.2920 -65.2893 -65.2889 -65.2841 -65.2837 -65.2833 -65.2825
   -65.2801 -65.2798 -65.2791 -65.2789 -65.2786 -65.2758 -65.2752 -65.2750
   -65.2740 -65.2733 -65.2729 -65.2727 -65.2718 -65.2691 -65.2688 -65.2687
   -65.2685 -65.2684 -65.2682 -65.2670 -65.2668 -65.2664 -65.2661 -65.2648
   -65.2646 -65.2633 -65.2631 -65.2629 -65.2626 -65.2622 -65.2605 -65.2594
   -65.2592 -65.2591 -65.2589 -65.2585 -65.2580 -65.2576 -65.2574 -65.2572
   -65.2570 -65.2558 -65.2556 -65.2549 -65.2544 -65.2541 -65.2537 -65.2524
   -65.2521 -65.2514 -65.2513 -65.2513 -65.2511 -65.2510 -65.2509 -65.2507
   -65.2489 -65.2486 -65.2482 -65.2464 -65.2462 -65.2454 -65.2452 -65.2452
   -65.2444 -65.2442 -65.2421 -65.2411 -65.2410 -65.2401 -65.2365 -65.2346
   -65.2345 -65.2308 -65.0970 -65.0965 -65.0939 -65.0873 -65.0837 -65.0829
   -65.0788 -65.0788 -65.0760 -65.0694 -65.0655 -65.0654 -65.0640 -65.0622
   -65.0609 -65.0607 -65.0557 -65.0550 -65.0543 -65.0538 -65.0477 -65.0459
   -65.0439 -65.0431 -65.0430 -65.0430 -65.0430 -65.0390 -65.0373 -65.0372
   -65.0364 -65.0364 -65.0298 -65.0253 -65.0252 -65.0212 -65.0064 -65.0047
   -65.0041 -65.0027 -65.0012 -65.0010 -64.9999 -64.9982 -64.9979 -64.9820
   -64.9807 -64.9806 -64.9779 -64.9778 -64.9769 -64.9769 -64.9767 -64.9765
   -12.5613  -9.8259  -9.8234  -6.2346  -6.2261  -4.2559  -3.5019  -2.8965
    -2.6957  -2.6956  -2.6610  -2.3237  -2.1221  -2.1217  -1.9754  -1.7460
    -1.7058  -1.2656  -1.2623  -0.8965  -0.6849  -0.6848  -0.4557  -0.3344
    -0.3336  -0.2911  -0.2646  -0.0940  -0.0939  -0.0843   0.0804   0.0813
     0.1006   0.1008   0.1170   0.1667   0.1788   0.1789   0.1959   0.2046
     0.2447   0.2948   0.2983   0.3016   0.3016   0.3747   0.3788   0.4395
     0.4400   0.4517   0.4626   0.4902   0.4903   0.4931   0.5116   0.5125
     0.5794   0.5797   0.6053   0.6070   0.6372   0.6373   0.6625   0.6716
     0.6718   0.7397   0.7398   0.7667   0.7888   0.7997   0.8000   0.8752
     0.8754   0.9265   0.9460   0.9462   0.9750   0.9751   1.0326   1.0418
     1.0421   1.0574   1.0575   1.0716   1.1101   1.1375   1.1376   1.1800
     1.1803   1.2072   1.2123   1.2129   1.2143   1.2307   1.2308   1.2900
     1.2903   1.2933   1.2934   1.2967   1.3090   1.3261   1.3272   1.3402
     1.3407   1.3681   1.3693   1.3919   1.3933   1.3942   1.4132   1.4378
     1.4786   1.4866   1.4868   1.4870   1.4880   1.5169   1.5358   1.5395
     1.5405   1.5775   1.5777   1.5785   1.5814   1.5876   1.6107   1.6319
     1.6319   1.6487   1.6488   1.6746   1.6764   1.6860   1.6861   1.6978
     1.6985   1.7132   1.7135   1.7309   1.7311   1.7460   1.7544   1.7781
     1.7880   1.7918   1.7972   1.8145   1.8166   1.8171   1.8242   1.8323
     1.8331   1.8427   1.8428   1.8567   1.8589   1.8615   1.8620   1.8644
     1.8842   1.8899   1.9127   1.9278   1.9303   1.9373   1.9412   1.9421
     1.9495   1.9502   1.9503   1.9536   1.9586   1.9628   1.9649   1.9655
     2.0241   2.0253   2.0856   2.0861   2.0959   2.0990   2.1001   2.1038
     2.1280   2.1282   2.1366   2.1379   2.1522   2.1719   2.1797   2.1817
     2.2030   2.2073   2.2312   2.2457   2.2515   2.2642   2.2650   2.2679
     2.2684   2.2703   2.2730   2.2775   2.2796   2.2856   2.3067   2.3179
     2.3517   2.3543   2.3556   2.3592   2.3656   2.3686   2.3737   2.3983
     2.4032   2.4090   2.4223   2.4464   2.4479   2.4656   2.4719   2.4728
     2.4834   2.4861   2.5169   2.5252   2.5306   2.5312   2.5576   2.5582
     2.5799   2.5861   2.5868   2.6050   2.6063   2.6285   2.6291   2.6301
     2.6335   2.6365   2.6493   2.6494   2.6541   2.6605   2.6641   2.6816
     2.7184   2.7247   2.7250   2.7282   2.7756   2.7759   2.7864   2.7884
     2.8186   2.8312   2.8318   2.8375   2.8379   2.8520   2.8550   2.8820
[...]
     4.1545   4.1669   4.2590   4.2593   4.2725   4.5349   4.6442   4.6508
     4.6670   4.6671   4.7941   5.1125   5.1401   5.1411   5.5850   5.6247
     5.6454   5.6939   5.8774   5.8958   5.8976   6.0275   6.0345   6.1187
     6.1918   6.5637   6.6414   6.6436   6.8163   6.8846   6.9631   7.0206
     7.0214   7.3047   7.3719   7.3795   7.5692   7.7696   7.8484   7.9335
     8.4392   8.4433   8.4683   8.5467   8.7206   9.0370   9.1008   9.1310
     9.2045   9.2936   9.3226   9.4455   9.4553   9.6235   9.6495   9.6641
     9.7807   9.8428  10.0102  10.1155  10.1463  10.3318  10.3948  10.4605
    10.4979  10.5763  10.6602  10.7764  10.8139  11.0394  11.1251  11.1517
    11.2462  11.2714  11.4180  11.4465  11.4518  11.5881  11.6203  11.6770
    11.6874  11.7764  11.8211  11.8403  11.9857  12.0801  12.1262  12.1676
    12.2650  12.3423  12.3719  12.4017  12.4635  12.4861  12.5503  12.5958
    12.6940  12.7104  12.7987  12.8978  12.9386  12.9604  13.1425  13.2439
    13.2621  13.2839  13.3639  13.3950  13.4632  13.4940  13.5287  13.6231
    13.6481  13.6692

     the Fermi energy is     4.5776 ev

!    total energy              =  -21903.76895824 Ry
     Harris-Foulkes estimate   =  -21903.76895823 Ry
     estimated scf accuracy    <          3.6E-09 Ry

     The total energy is the sum of the following terms:

     one-electron contribution = -206504.19157744 Ry
     hartree contribution      =  103453.64689057 Ry
     xc contribution           =   -2143.17397269 Ry
     ewald contribution        =   83290.00227520 Ry
     smearing contrib. (-TS)   =      -0.05257388 Ry

     convergence has been achieved in  36 iterations

     General routines

     Parallel routines

      15h

   This run was terminated on:  22:13:26  18Nov2019

   JOB DONE.