     Program PWSCF v.6.3MaX starts on 22Nov2019 at 12: 6: 6

     R & G space division:  proc/nbgrp/npool/nimage =      16
     Waiting for input...
     Reading input from standard input

     Current dimensions of program PWSCF are:
     Max number of different atomic species (ntypx) = 10
     Max number of k-points (npk) =  40000
     Max angular momentum in pseudopotentials (lmaxx) =  3
     Message from routine iosys:
     minimal I/O required, wf_collect reset to FALSE

     IMPORTANT: XC functional enforced from input :
     Exchange-correlation      = VDW-DF ( 1  4  4  0 1 0)
     Any further DFT definition will be discarded
     Please, verify this is what you really want

     bravais-lattice index     =            0
     lattice parameter (alat)  =      14.8058  a.u.
     unit-cell volume          =   10282.4791 (a.u.)^3
     number of atoms/cell      =           66
     number of atomic types    =            3
     number of electrons       =      1056.00
     number of Kohn-Sham states=          634
     kinetic-energy cutoff     =      50.0000  Ry
     charge density cutoff     =     600.0000  Ry
     convergence threshold     =      1.0E-08
     mixing beta               =       0.3000
     number of iterations used =            8  plain     mixing
     Exchange-correlation      = VDW-DF ( 1  4  4  0 1 0)

     celldm(1)=  14.805786  celldm(2)=   0.000000  celldm(3)=   0.000000
     celldm(4)=   0.000000  celldm(5)=   0.000000  celldm(6)=   0.000000

     crystal axes: (cart. coord. in units of alat)
               a(1) = (   1.000000   0.000000   0.000000 )
               a(2) = (   0.500000   0.866025   0.000000 )
               a(3) = (   0.000000   0.000000   3.658245 )

     reciprocal axes: (cart. coord. in units 2 pi/alat)
               b(1) = (  1.000000 -0.577350  0.000000 )
               b(2) = (  0.000000  1.154701  0.000000 )
               b(3) = (  0.000000  0.000000  0.273355 )

     PseudoPot. # 1 for Cu read from file:
     /deac/thonhauserGrp/chakrad/calculations/atomandmolecule-qe6.2.1-i2012-C6modif/all_pbe_UPF_v1.5/cu_pbe_v1.2.uspp.F.UPF
     MD5 check sum: 6e991ff952a84172a2a52a1c1e996048
     Pseudo is Ultrasoft + core correction, Zval = 19.0
     Generated by new atomic code, or converted to UPF format
     Using radial grid of  867 points,  6 beta functions with:
                l(1) =   0
                l(2) =   0
                l(3) =   1
                l(4) =   1
                l(5) =   2
                l(6) =   2
     Q(r) pseudized with  8 coefficients,  rinner =    1.150   1.150   1.150
                                                       1.150   1.150

     PseudoPot. # 2 for C  read from file:
     /deac/thonhauserGrp/chakrad/calculations/atomandmolecule-qe6.2.1-i2012-C6modif/all_pbe_UPF_v1.5/c_pbe_v1.2.uspp.F.UPF
     MD5 check sum: d1aef80898a10debaa0f26306b886e00
     Pseudo is Ultrasoft + core correction, Zval =  4.0
     Generated by new atomic code, or converted to UPF format
     Using radial grid of  721 points,  4 beta functions with:
                l(1) =   0
                l(2) =   0
                l(3) =   1
                l(4) =   1
     Q(r) pseudized with  8 coefficients,  rinner =    1.100   1.100   1.100

     PseudoPot. # 3 for H  read from file:
     /deac/thonhauserGrp/chakrad/calculations/atomandmolecule-qe6.2.1-i2012-C6modif/all_pbe_UPF_v1.5/h_pbe_v1.4.uspp.F.UPF
     MD5 check sum: 761ae9a214b05c3daf00ab9f6b793d6f
     Pseudo is Ultrasoft, Zval =  1.0
     Generated by new atomic code, or converted to UPF format
     Using radial grid of  615 points,  2 beta functions with:
                l(1) =   0
                l(2) =   0
     Q(r) pseudized with  8 coefficients,  rinner =    0.700

     vdW kernel table read from file vdW_kernel_table
     MD5 check sum: cc9485f6209b1096fbef62427c856dab

     atomic species   valence    mass     pseudopotential
        Cu            19.00     1.00000     Cu( 1.00)
        C              4.00     1.00000     C ( 1.00)
        H              1.00     1.00000     H ( 1.00)

     No symmetry found

   Cartesian axes

     site n.     atom                  positions (alat units)
         1           Cu  tau(   1) = (   0.1666667   0.0962250   0.2552686  )
         2           Cu  tau(   2) = (   0.5000000   0.0962250   0.2552686  )
         3           Cu  tau(   3) = (   0.8333333   0.0962250   0.2552686  )
         4           Cu  tau(   4) = (   0.3333333   0.3849002   0.2552686  )
         5           Cu  tau(   5) = (   0.6666667   0.3849002   0.2552686  )
         6           Cu  tau(   6) = (   1.0000000   0.3849002   0.2552686  )
         7           Cu  tau(   7) = (   0.5000000   0.6735753   0.2552686  )
         8           Cu  tau(   8) = (   0.8333333   0.6735753   0.2552686  )
         9           Cu  tau(   9) = (   1.1666667   0.6735753   0.2552686  )
        10           Cu  tau(  10) = (   0.0000000   0.1924501   0.5274341  )
        11           Cu  tau(  11) = (   0.3333333   0.1924501   0.5274341  )
        12           Cu  tau(  12) = (   0.6666667   0.1924501   0.5274341  )
        13           Cu  tau(  13) = (   0.1666667   0.4811252   0.5274341  )
        14           Cu  tau(  14) = (   0.5000000   0.4811252   0.5274341  )
        15           Cu  tau(  15) = (   0.8333333   0.4811252   0.5274341  )
        16           Cu  tau(  16) = (   0.3333333   0.7698004   0.5274341  )
        17           Cu  tau(  17) = (   0.6666667   0.7698004   0.5274341  )
        18           Cu  tau(  18) = (   1.0000000   0.7698004   0.5274341  )
        19           Cu  tau(  19) = (   0.0000000   0.0000000   0.7995997  )
        20           Cu  tau(  20) = (   0.3333333   0.0000000   0.7995997  )
        21           Cu  tau(  21) = (   0.6666667   0.0000000   0.7995997  )
        22           Cu  tau(  22) = (   0.1666667   0.2886751   0.7995997  )
        23           Cu  tau(  23) = (   0.5000000   0.2886751   0.7995997  )
        24           Cu  tau(  24) = (   0.8333333   0.2886751   0.7995997  )
        25           Cu  tau(  25) = (   0.3333333   0.5773503   0.7995997  )
        26           Cu  tau(  26) = (   0.6666667   0.5773503   0.7995997  )
        27           Cu  tau(  27) = (   1.0000000   0.5773503   0.7995997  )
        28           Cu  tau(  28) = (   0.1666659   0.0962246   1.0691130  )
        29           Cu  tau(  29) = (   0.5000000   0.0962241   1.0691104  )
        30           Cu  tau(  30) = (   0.8333341   0.0962246   1.0691130  )
        31           Cu  tau(  31) = (   0.3333325   0.3849006   1.0691104  )
        32           Cu  tau(  32) = (   0.6666675   0.3849006   1.0691104  )
        33           Cu  tau(  33) = (   1.0000000   0.3849003   1.0691143  )
        34           Cu  tau(  34) = (   0.5000000   0.6735762   1.0691130  )
        35           Cu  tau(  35) = (   0.8333334   0.6735753   1.0691143  )
        36           Cu  tau(  36) = (   1.1666666   0.6735753   1.0691143  )
        37           Cu  tau(  37) = (   0.0000000   0.1924486   1.3387540  )
        38           Cu  tau(  38) = (   0.3333330   0.1924499   1.3387465  )
        39           Cu  tau(  39) = (   0.6666670   0.1924499   1.3387465  )
        40           Cu  tau(  40) = (   0.1666676   0.4811247   1.3387504  )
        41           Cu  tau(  41) = (   0.5000000   0.4811256   1.3387465  )
        42           Cu  tau(  42) = (   0.8333324   0.4811247   1.3387504  )
        43           Cu  tau(  43) = (   0.3333346   0.7698011   1.3387540  )
        44           Cu  tau(  44) = (   0.6666654   0.7698011   1.3387540  )
        45           Cu  tau(  45) = (   1.0000000   0.7698014   1.3387504  )
        46           Cu  tau(  46) = (   0.0000000   0.0000000   1.6083750  )
        47           Cu  tau(  47) = (   0.3333333   0.0000005   1.6083624  )
        48           Cu  tau(  48) = (   0.6666667   0.0000005   1.6083624  )
        49           Cu  tau(  49) = (   0.1666671   0.2886748   1.6083624  )
        50           Cu  tau(  50) = (   0.5000000   0.2886751   1.6083553  )
        51           Cu  tau(  51) = (   0.8333329   0.2886748   1.6083624  )
        52           Cu  tau(  52) = (   0.3333338   0.5773500   1.6083624  )
        53           Cu  tau(  53) = (   0.6666662   0.5773500   1.6083624  )
        54           Cu  tau(  54) = (   1.0000000   0.5773503   1.6083570  )
        55           C   tau(  55) = (   0.6567407   0.3959883   1.9912208  )
        56           C   tau(  56) = (   0.5046394   0.3028152   1.9912207  )
        57           C   tau(  57) = (   0.3478975   0.3879497   1.9912208  )
        58           C   tau(  58) = (   0.3432593   0.5662630   1.9912208  )
        59           C   tau(  59) = (   0.4953606   0.6594361   1.9912207  )
        60           C   tau(  60) = (   0.6521025   0.5743016   1.9912208  )
        61           H   tau(  61) = (   0.7789959   0.3295665   1.9912990  )
        62           H   tau(  62) = (   0.5082587   0.1637263   1.9912991  )
        63           H   tau(  63) = (   0.2292624   0.3152577   1.9912990  )
        64           H   tau(  64) = (   0.2210041   0.6326847   1.9912990  )
        65           H   tau(  65) = (   0.4917413   0.7985249   1.9912991  )
        66           H   tau(  66) = (   0.7707376   0.6469936   1.9912990  )

     number of k points=    10  gaussian smearing, width (Ry)=  0.0200
                       cart. coord. in units 2pi/alat
        k(    1) = (   0.0000000   0.0000000   0.0000000), wk =   0.1250000
        k(    2) = (   0.0000000   0.2886751   0.0000000), wk =   0.2500000
        k(    3) = (   0.0000000  -0.5773503   0.0000000), wk =   0.1250000
        k(    4) = (   0.2500000  -0.7216878   0.0000000), wk =   0.2500000
        k(    5) = (  -0.2500000   0.1443376   0.0000000), wk =   0.2500000
        k(    6) = (   0.2500000   0.1443376   0.0000000), wk =   0.2500000
        k(    7) = (   0.5000000  -0.2886751   0.0000000), wk =   0.1250000
        k(    8) = (  -0.5000000  -0.2886751   0.0000000), wk =   0.1250000
        k(    9) = (  -0.2500000  -0.7216878   0.0000000), wk =   0.2500000
        k(   10) = (  -0.5000000  -0.5773503   0.0000000), wk =   0.2500000

     Initial potential from superposition of free atoms
     Check: negative starting charge=   -0.000802

     starting charge 1001.99960, renormalised to 1056.00000

     negative rho (up, down):  8.448E-04 0.000E+00

     %%%%%%%%%%%%%%%%%%%%%%%%%%%%%%%%%%%%%%%%%%%%%%%%%%%%%%%%%%%%%%%%%%%%%%%%
     %                                                                      %
     % You are using vdW-DF, which was implemented by the Thonhauser group. %
     % Please cite the following two papers that made this development      %
     % possible and the two reviews that describe the various versions:     %
     %                                                                      %
     %   T. Thonhauser et al., PRL 115, 136402 (2015).                      %
     %   T. Thonhauser et al., PRB 76, 125112 (2007).                       %
     %   K. Berland et al., Rep. Prog. Phys. 78, 066501 (2015).             %
     %   D.C. Langreth et al., J. Phys.: Condens. Matter 21, 084203 (2009). %
     %                                                                      %
     %                                                                      %
     % If you are calculating the stress with vdW-DF, please also cite:     %
     %                                                                      %
     %   R. Sabatini et al., J. Phys.: Condens. Matter 24, 424209 (2012).   %
     %                                                                      %
     %%%%%%%%%%%%%%%%%%%%%%%%%%%%%%%%%%%%%%%%%%%%%%%%%%%%%%%%%%%%%%%%%%%%%%%%

     Starting wfcs are  732 randomized atomic wfcs

     Self-consistent Calculation

     iteration #  1     ecut=    50.00 Ry     beta= 0.30
     Davidson diagonalization with overlap
     ethr =  1.00E-02,  avg # of iterations =  5.9

[...]

     total energy              =  -18835.38056170 Ry
     Harris-Foulkes estimate   =  -22010.65355020 Ry
     estimated scf accuracy    <    6275.05147173 Ry

     iteration #  2     ecut=    50.00 Ry     beta= 0.30
     Davidson diagonalization with overlap
     c_bands:  2 eigenvalues not converged
     ethr =  1.00E-02,  avg # of iterations = 18.9

[...]

     total energy              =  -21903.75626241 Ry
     Harris-Foulkes estimate   =  -21903.75626244 Ry
     estimated scf accuracy    <       0.00000001 Ry

     iteration # 39     ecut=    50.00 Ry     beta= 0.30
     Davidson diagonalization with overlap
     ethr =  1.10E-12,  avg # of iterations =  2.0

     negative rho (up, down):  2.620E-03 0.000E+00

     End of self-consistent calculation

          k = 0.0000 0.0000 0.0000 ( 61453 PWs)   bands (ev):

  -107.7383-107.7320-107.7271-107.7271-107.7261-107.7260-107.7256-107.7256
  -107.7241-107.7231-107.7231-107.7224-107.7224-107.7218-107.7217-107.7217
  -107.7211-107.7204-107.7182-107.7182-107.7176-107.7159-107.7159-107.7142
  -107.7122-107.7122-107.7122-107.7089-107.7070-107.7070-107.7069-107.7069
  -107.7056-107.7056-107.7046-107.7018-107.5474-107.5447-107.5447-107.5251
  -107.5226-107.5226-107.5096-107.5072-107.5072-107.4724-107.4677-107.4677
  -107.4675-107.4668-107.4668-107.4668-107.4645-107.4645 -65.1878 -65.1775
   -65.1740 -65.1739 -65.1732 -65.1732 -65.1722 -65.1674 -65.1672 -65.1672
   -65.1657 -65.1656 -65.1648 -65.1645 -65.1645 -65.1624 -65.1618 -65.1618
   -65.1614 -65.1605 -65.1564 -65.1563 -65.1545 -65.1530 -65.1526 -65.1526
   -65.1513 -65.1513 -65.1512 -65.1504 -65.1504 -65.1492 -65.1492 -65.1485
   -65.1475 -65.1466 -65.1466 -65.1462 -65.1426 -65.1426 -65.1422 -65.1411
   -65.1407 -65.1407 -65.1401 -65.1401 -65.1377 -65.1365 -65.1365 -65.1345
   -65.1339 -65.1337 -65.1336 -65.1335 -65.1335 -65.1327 -65.1278 -65.1265
   -65.1265 -65.1257 -65.1257 -65.1246 -65.1245 -65.1245 -65.1243 -65.1238
   -65.1238 -65.1220 -65.1219 -65.1216 -65.1216 -65.1208 -65.1208 -65.1187
   -65.1185 -65.1158 -65.1157 -65.1157 -65.1157 -65.1151 -65.1151 -65.1137
   -65.1137 -65.1134 -65.1126 -65.1126 -65.1123 -65.1099 -65.1091 -65.1091
   -65.1091 -65.1078 -65.1078 -65.1076 -65.1063 -65.1063 -65.1013 -65.1013
   -65.1009 -65.1003 -65.1003 -65.0998 -65.0993 -65.0993 -65.0961 -65.0961
   -65.0893 -65.0893 -64.9959 -64.9959 -64.9957 -64.9854 -64.9799 -64.9799
   -64.9764 -64.9736 -64.9736 -64.9612 -64.9517 -64.9439 -64.9439 -64.9425
   -64.9425 -64.9332 -64.9330 -64.9305 -64.9305 -64.9272 -64.9268 -64.9268
   -64.9266 -64.9262 -64.9262 -64.9242 -64.9242 -64.9240 -64.9240 -64.9239
   -64.9233 -64.9053 -64.9030 -64.9030 -64.8915 -64.8915 -64.8914 -64.8913
   -64.8913 -64.8905 -64.8880 -64.8858 -64.8858 -64.8790 -64.8790 -64.8442
   -64.8398 -64.8398 -64.8397 -64.8389 -64.8389 -64.8388 -64.8367 -64.8367
   -13.0161 -10.2567 -10.2565  -6.6484  -6.6479  -4.7192  -3.9993  -3.3851
    -3.1039  -2.7416  -2.4518  -2.0793  -2.0792  -1.4195  -1.0513  -1.0339
    -1.0339  -1.0331  -1.0331  -1.0330  -0.9603  -0.6341  -0.6341  -0.6316
    -0.6316  -0.6306  -0.6189  -0.3832  -0.1610  -0.1609  -0.1390  -0.1390
    -0.1346  -0.1320  -0.1117  -0.1116  -0.1112   0.3083   0.3083   0.3185
     0.3206   0.3206   0.3270   0.6565   0.6565   0.6681   0.6685   0.6685
     0.6735   0.7939   0.7939   0.7963   0.7973   0.7973   0.7990   0.8429
     0.8429   0.8454   0.8454   0.8458   0.8473   0.8768   0.8768   0.8907
     0.8907   0.8977   0.8979   0.9937   0.9940   1.0055   1.0055   1.0110
     1.0110   1.0169   1.0201   1.0201   1.0224   1.0354   1.0354   1.0367
     1.0368   1.0727   1.0727   1.1293   1.1293   1.2056   1.2056   1.2264
     1.2264   1.2304   1.2316   1.2316   1.2346   1.2738   1.2738   1.4167
     1.4167   1.4674   1.4674   1.4692   1.4709   1.5531   1.5532   1.6060
     1.6060   1.6142   1.6142   1.6243   1.6243   1.6254   1.6271   1.6611
     1.6613   1.6684   1.6689   1.6689   1.6848   1.7379   1.7379   1.7390
     1.7396   1.7505   1.7505   1.7520   1.7520   1.7805   1.7805   1.8057
     1.8170   1.8170   1.8221   1.8223   1.8223   1.8256   1.8421   1.8421
     1.8664   1.8664   1.8759   1.8770   1.8770   1.8776   1.8840   1.8841
     1.8981   1.8982   1.8983   1.8996   1.9001   1.9001   1.9059   1.9059
     1.9160   1.9872   1.9872   2.0008   2.0013   2.0201   2.0201   2.0209
     2.0260   2.0449   2.0449   2.0460   2.0460   2.0711   2.0711   2.0778
     2.0781   2.0974   2.0974   2.0976   2.0997   2.0999   2.0999   2.1005
     2.1005   2.2772   2.2772   2.2787   2.2852   2.3254   2.3254   2.3521
     2.3531   2.3531   2.3557   2.3557   2.3560   2.4004   2.4004   2.4065
     2.4101   2.4362   2.4362   2.4375   2.4375   2.4552   2.4552   2.4617
     2.4618   2.5195   2.5275   2.5275   2.5494   2.5494   2.5530   2.5543
     2.5543   2.5656   2.5690   2.5691   2.5792   2.5792   2.5827   2.5856
     2.5856   2.5861   2.5861   2.5868   2.5965   2.5965   2.6587   2.6587
     2.7257   2.7263   2.7263   2.7277   2.7279   2.7279   2.7795   2.7807
     2.7807   2.7825   2.7877   2.7877   2.7878   2.7886   2.7891   2.7891
     2.7938   2.7938   2.8418   2.8418   2.8526   2.8542   2.8542   2.8556
     2.8556   2.8563   2.8668   2.8669   2.8669   2.8679   2.8683   2.8683
     2.8878   2.8880   2.8880   2.8884   2.8890   2.8890   2.9029   2.9029
[...]
     3.1309   3.1310   3.1416   3.1416   3.9645   4.0433   4.0433   4.0513
     4.1126   4.1305   4.1305   4.6126   5.4485   5.4486   5.4770   5.5333
     5.5772   5.5773   6.8251   6.8253   6.9956   7.2284   7.3349   7.3913
     7.3914   7.4464   7.4464   7.9256   7.9256   7.9264   7.9268   7.9433
     7.9433   8.1897   8.3157   8.3157   8.3406   8.3406   8.4453   8.7149
     8.7212   8.8091   8.8930   8.8930   8.9747   8.9752   9.0140   9.1932
     9.1932   9.3754   9.4317   9.6053   9.6053   9.6198   9.6198   9.8733
     9.8735   9.9027   9.9873   9.9915  10.5505  10.5774  10.7100  10.7100
    10.7850  10.7850  10.8566  10.8567  10.9739  10.9739  11.0261  11.0262
    11.0479  11.1542  11.1944  11.3527  11.3527  11.4278  11.4278  11.4529
    11.5434  11.6102  11.6102  11.7737  11.8357  11.8358  11.8918  11.8918
    11.9539  11.9896  11.9897  12.0141  12.0141  12.0495  12.1383  12.2321
    12.2321  12.2806  12.3105  12.3828  12.3828  12.5633  12.5633  12.7871
    12.8724  12.8812  12.8813  13.0383  13.0383  13.0644  13.0690  13.1087
    13.1942  13.2063

[...]

          k =-0.2500 0.1443 0.0000 ( 61417 PWs)   bands (ev):

[...]

          k = 0.5000-0.2887 0.0000 ( 61408 PWs)   bands (ev):

[...]

          k =-0.5000-0.5774 0.0000 ( 61343 PWs)   bands (ev):

  -107.7382-107.7309-107.7290-107.7284-107.7258-107.7254-107.7248-107.7243
  -107.7242-107.7237-107.7231-107.7227-107.7223-107.7218-107.7216-107.7212
  -107.7209-107.7202-107.7193-107.7187-107.7174-107.7156-107.7155-107.7141
  -107.7123-107.7121-107.7116-107.7094-107.7085-107.7073-107.7061-107.7058
  -107.7055-107.7053-107.7050-107.7018-107.5473-107.5447-107.5447-107.5252
  -107.5226-107.5225-107.5097-107.5072-107.5071-107.4711-107.4697-107.4694
  -107.4669-107.4664-107.4658-107.4656-107.4650-107.4648 -65.1842 -65.1802
   -65.1781 -65.1778 -65.1766 -65.1765 -65.1756 -65.1743 -65.1732 -65.1710
   -65.1707 -65.1698 -65.1670 -65.1660 -65.1650 -65.1641 -65.1640 -65.1620
   -65.1611 -65.1586 -65.1581 -65.1578 -65.1572 -65.1563 -65.1555 -65.1552
   -65.1540 -65.1533 -65.1513 -65.1502 -65.1480 -65.1457 -65.1453 -65.1444
   -65.1425 -65.1420 -65.1415 -65.1405 -65.1403 -65.1384 -65.1375 -65.1369
   -65.1367 -65.1357 -65.1349 -65.1345 -65.1328 -65.1316 -65.1312 -65.1307
   -65.1303 -65.1302 -65.1299 -65.1289 -65.1285 -65.1278 -65.1273 -65.1267
   -65.1261 -65.1253 -65.1246 -65.1245 -65.1242 -65.1234 -65.1224 -65.1218
   -65.1214 -65.1208 -65.1203 -65.1201 -65.1198 -65.1193 -65.1186 -65.1184
   -65.1183 -65.1177 -65.1170 -65.1165 -65.1162 -65.1151 -65.1151 -65.1146
   -65.1138 -65.1137 -65.1132 -65.1128 -65.1125 -65.1124 -65.1122 -65.1118
   -65.1106 -65.1095 -65.1093 -65.1080 -65.1073 -65.1069 -65.1064 -65.1062
   -65.1056 -65.1051 -65.1036 -65.1028 -65.1023 -65.1015 -65.0983 -65.0965
   -65.0961 -65.0924 -65.0022 -65.0008 -64.9990 -64.9870 -64.9802 -64.9773
   -64.9703 -64.9676 -64.9635 -64.9563 -64.9513 -64.9474 -64.9455 -64.9441
   -64.9402 -64.9399 -64.9392 -64.9372 -64.9355 -64.9329 -64.9307 -64.9306
   -64.9306 -64.9299 -64.9268 -64.9265 -64.9263 -64.9072 -64.9053 -64.9052
   -64.9043 -64.9042 -64.9030 -64.9030 -64.8987 -64.8984 -64.8977 -64.8974
   -64.8910 -64.8880 -64.8865 -64.8864 -64.8858 -64.8857 -64.8824 -64.8430
   -64.8417 -64.8413 -64.8391 -64.8384 -64.8380 -64.8378 -64.8371 -64.8369
   -13.0145 -10.2621 -10.2596  -6.6509  -6.6425  -4.6641  -3.3664  -3.0478
    -2.7697  -2.7489  -2.5617  -2.5601  -2.1682  -2.1252  -1.9989  -1.9803
    -1.8594  -1.2605  -1.1340  -0.9994  -0.6819  -0.5490  -0.5472  -0.2289
    -0.2028  -0.1973  -0.1610  -0.1437  -0.1311   0.0426   0.0427   0.0532
     0.2115   0.2156   0.2373   0.2378   0.2532   0.3036   0.3134   0.3140
     0.3327   0.4316   0.4333   0.4349   0.4359   0.4977   0.5108   0.5700
     0.5752   0.5852   0.5966   0.6269   0.6271   0.6284   0.6457   0.6476
     0.7002   0.7035   0.7398   0.7420   0.7702   0.7704   0.8003   0.8056
     0.8083   0.8654   0.8670   0.8979   0.9180   0.9361   0.9370   1.0002
     1.0114   1.0609   1.0799   1.0821   1.1007   1.1038   1.1633   1.1687
     1.1762   1.1928   1.1936   1.1992   1.2435   1.2662   1.2697   1.3071
     1.3128   1.3240   1.3334   1.3395   1.3449   1.3636   1.3646   1.3998
     1.4130   1.4215   1.4259   1.4295   1.4387   1.4445   1.4612   1.4631
     1.4659   1.4832   1.4885   1.5116   1.5180   1.5240   1.5380   1.5675
     1.5702   1.5767   1.6159   1.6204   1.6211   1.6312   1.6430   1.6517
     1.6690   1.6774   1.6969   1.7123   1.7133   1.7211   1.7281   1.7307
     1.7494   1.7656   1.7693   1.7727   1.7730   1.8094   1.8157   1.8201
     1.8207   1.8268   1.8363   1.8470   1.8495   1.8657   1.8672   1.8781
     1.8803   1.9011   1.9112   1.9260   1.9337   1.9453   1.9508   1.9569
     1.9578   1.9668   1.9700   1.9771   1.9799   1.9803   1.9919   1.9938
     2.0006   2.0114   2.0169   2.0247   2.0458   2.0475   2.0588   2.0640
     2.0800   2.0815   2.0830   2.0858   2.0870   2.0915   2.0932   2.0980
     2.0983   2.1073   2.1620   2.1630   2.2206   2.2258   2.2273   2.2313
     2.2353   2.2394   2.2572   2.2591   2.2829   2.2904   2.2957   2.3073
     2.3242   2.3265   2.3631   2.3645   2.3685   2.3962   2.3973   2.3986
     2.3992   2.3999   2.4035   2.4055   2.4086   2.4184   2.4360   2.4386
     2.4721   2.4773   2.4860   2.4862   2.4930   2.5000   2.5094   2.5304
     2.5357   2.5411   2.5519   2.5676   2.5722   2.5901   2.6026   2.6034
     2.6149   2.6193   2.6440   2.6501   2.6560   2.6678   2.6879   2.6922
     2.7088   2.7130   2.7144   2.7321   2.7378   2.7535   2.7598   2.7626
     2.7647   2.7699   2.7721   2.7760   2.7834   2.7908   2.8071   2.8251
     2.8500   2.8528   2.8530   2.8656   2.9028   2.9046   2.9181   2.9263
     2.9490   2.9620   2.9656   2.9713   2.9729   2.9761   2.9839   3.0146
[...]
     4.2954   4.3334   4.3896   4.3920   4.4083   4.6653   4.7596   4.7877
     4.7964   4.7979   4.9768   5.2322   5.2618   5.2663   5.7187   5.7452
     5.7851   5.9114   5.9866   6.0049   6.0129   6.1525   6.1652   6.2251
     6.3169   6.6484   6.7087   6.7399   6.9015   6.9700   7.0645   7.0817
     7.1314   7.1885   7.2310   7.4659   7.6818   7.7335   7.9871   8.0202
     8.4564   8.5713   8.5765   8.6793   8.7524   8.9104   9.1562   9.1793
     9.2501   9.3465   9.3822   9.5125   9.5472   9.6151   9.7352   9.7687
     9.8196  10.0011  10.0459  10.1366  10.1946  10.3924  10.4188  10.4950
    10.5401  10.6459  10.8041  10.8896  10.9445  11.0067  11.1049  11.2020
    11.2100  11.2758  11.4444  11.5551  11.5669  11.6294  11.6332  11.7249
    11.7788  11.8789  11.9157  11.9573  11.9752  12.0852  12.1279  12.2051
    12.3095  12.3940  12.4791  12.4947  12.5782  12.6139  12.6571  12.7028
    12.7289  12.8092  12.8254  12.8770  12.9561  13.0867  13.1520  13.1841
    13.3205  13.3446  13.3899  13.4357  13.5082  13.5692  13.6118  13.6697
    13.7197  13.7398

     the Fermi energy is     4.7128 ev

!    total energy              =  -21903.75626238 Ry
     Harris-Foulkes estimate   =  -21903.75626241 Ry
     estimated scf accuracy    <          5.2E-09 Ry

     The total energy is the sum of the following terms:

     one-electron contribution = -208653.56110514 Ry
     hartree contribution      =  104532.87621770 Ry
     xc contribution           =   -2143.26466361 Ry
     ewald contribution        =   84360.24630515 Ry
     smearing contrib. (-TS)   =      -0.05301648 Ry

     convergence has been achieved in  39 iterations

     General routines

     Parallel routines

      12h

   This run was terminated on:  17:18:47  22Nov2019

   JOB DONE.