     Program PWSCF v.6.3MaX starts on 21Nov2019 at 19:49:55

     R & G space division:  proc/nbgrp/npool/nimage =      16
     Waiting for input...
     Reading input from standard input

     Current dimensions of program PWSCF are:
     Max number of different atomic species (ntypx) = 10
     Max number of k-points (npk) =  40000
     Max angular momentum in pseudopotentials (lmaxx) =  3
     Message from routine iosys:
     minimal I/O required, wf_collect reset to FALSE

     IMPORTANT: XC functional enforced from input :
     Exchange-correlation      = VDW-DF ( 1  4  4  0 1 0)
     Any further DFT definition will be discarded
     Please, verify this is what you really want

     bravais-lattice index     =            0
     lattice parameter (alat)  =      14.8058  a.u.
     unit-cell volume          =   10282.4791 (a.u.)^3
     number of atoms/cell      =           66
     number of atomic types    =            3
     number of electrons       =      1056.00
     number of Kohn-Sham states=          634
     kinetic-energy cutoff     =      50.0000  Ry
     charge density cutoff     =     600.0000  Ry
     convergence threshold     =      1.0E-08
     mixing beta               =       0.3000
     number of iterations used =            8  plain     mixing
     Exchange-correlation      = VDW-DF ( 1  4  4  0 1 0)

     celldm(1)=  14.805786  celldm(2)=   0.000000  celldm(3)=   0.000000
     celldm(4)=   0.000000  celldm(5)=   0.000000  celldm(6)=   0.000000

     crystal axes: (cart. coord. in units of alat)
               a(1) = (   1.000000   0.000000   0.000000 )
               a(2) = (   0.500000   0.866025   0.000000 )
               a(3) = (   0.000000   0.000000   3.658245 )

     reciprocal axes: (cart. coord. in units 2 pi/alat)
               b(1) = (  1.000000 -0.577350  0.000000 )
               b(2) = (  0.000000  1.154701  0.000000 )
               b(3) = (  0.000000  0.000000  0.273355 )

     PseudoPot. # 1 for Cu read from file:
     /deac/thonhauserGrp/chakrad/calculations/atomandmolecule-qe6.2.1-i2012-C6modif/all_pbe_UPF_v1.5/cu_pbe_v1.2.uspp.F.UPF
     MD5 check sum: 6e991ff952a84172a2a52a1c1e996048
     Pseudo is Ultrasoft + core correction, Zval = 19.0
     Generated by new atomic code, or converted to UPF format
     Using radial grid of  867 points,  6 beta functions with:
                l(1) =   0
                l(2) =   0
                l(3) =   1
                l(4) =   1
                l(5) =   2
                l(6) =   2
     Q(r) pseudized with  8 coefficients,  rinner =    1.150   1.150   1.150
                                                       1.150   1.150

     PseudoPot. # 2 for C  read from file:
     /deac/thonhauserGrp/chakrad/calculations/atomandmolecule-qe6.2.1-i2012-C6modif/all_pbe_UPF_v1.5/c_pbe_v1.2.uspp.F.UPF
     MD5 check sum: d1aef80898a10debaa0f26306b886e00
     Pseudo is Ultrasoft + core correction, Zval =  4.0
     Generated by new atomic code, or converted to UPF format
     Using radial grid of  721 points,  4 beta functions with:
                l(1) =   0
                l(2) =   0
                l(3) =   1
                l(4) =   1
     Q(r) pseudized with  8 coefficients,  rinner =    1.100   1.100   1.100

     PseudoPot. # 3 for H  read from file:
     /deac/thonhauserGrp/chakrad/calculations/atomandmolecule-qe6.2.1-i2012-C6modif/all_pbe_UPF_v1.5/h_pbe_v1.4.uspp.F.UPF
     MD5 check sum: 761ae9a214b05c3daf00ab9f6b793d6f
     Pseudo is Ultrasoft, Zval =  1.0
     Generated by new atomic code, or converted to UPF format
     Using radial grid of  615 points,  2 beta functions with:
                l(1) =   0
                l(2) =   0
     Q(r) pseudized with  8 coefficients,  rinner =    0.700

     vdW kernel table read from file vdW_kernel_table
     MD5 check sum: cc9485f6209b1096fbef62427c856dab

     atomic species   valence    mass     pseudopotential
        Cu            19.00     1.00000     Cu( 1.00)
        C              4.00     1.00000     C ( 1.00)
        H              1.00     1.00000     H ( 1.00)

     No symmetry found

   Cartesian axes

     site n.     atom                  positions (alat units)
         1           Cu  tau(   1) = (   0.1666667   0.0962250   0.2552686  )
         2           Cu  tau(   2) = (   0.5000000   0.0962250   0.2552686  )
         3           Cu  tau(   3) = (   0.8333333   0.0962250   0.2552686  )
         4           Cu  tau(   4) = (   0.3333333   0.3849002   0.2552686  )
         5           Cu  tau(   5) = (   0.6666667   0.3849002   0.2552686  )
         6           Cu  tau(   6) = (   1.0000000   0.3849002   0.2552686  )
         7           Cu  tau(   7) = (   0.5000000   0.6735753   0.2552686  )
         8           Cu  tau(   8) = (   0.8333333   0.6735753   0.2552686  )
         9           Cu  tau(   9) = (   1.1666667   0.6735753   0.2552686  )
        10           Cu  tau(  10) = (   0.0000000   0.1924501   0.5274341  )
        11           Cu  tau(  11) = (   0.3333333   0.1924501   0.5274341  )
        12           Cu  tau(  12) = (   0.6666667   0.1924501   0.5274341  )
        13           Cu  tau(  13) = (   0.1666667   0.4811252   0.5274341  )
        14           Cu  tau(  14) = (   0.5000000   0.4811252   0.5274341  )
        15           Cu  tau(  15) = (   0.8333333   0.4811252   0.5274341  )
        16           Cu  tau(  16) = (   0.3333333   0.7698004   0.5274341  )
        17           Cu  tau(  17) = (   0.6666667   0.7698004   0.5274341  )
        18           Cu  tau(  18) = (   1.0000000   0.7698004   0.5274341  )
        19           Cu  tau(  19) = (   0.0000000   0.0000000   0.7995997  )
        20           Cu  tau(  20) = (   0.3333333   0.0000000   0.7995997  )
        21           Cu  tau(  21) = (   0.6666667   0.0000000   0.7995997  )
        22           Cu  tau(  22) = (   0.1666667   0.2886751   0.7995997  )
        23           Cu  tau(  23) = (   0.5000000   0.2886751   0.7995997  )
        24           Cu  tau(  24) = (   0.8333333   0.2886751   0.7995997  )
        25           Cu  tau(  25) = (   0.3333333   0.5773503   0.7995997  )
        26           Cu  tau(  26) = (   0.6666667   0.5773503   0.7995997  )
        27           Cu  tau(  27) = (   1.0000000   0.5773503   0.7995997  )
        28           Cu  tau(  28) = (   0.1666659   0.0962246   1.0691130  )
        29           Cu  tau(  29) = (   0.5000000   0.0962241   1.0691104  )
        30           Cu  tau(  30) = (   0.8333341   0.0962246   1.0691130  )
        31           Cu  tau(  31) = (   0.3333325   0.3849006   1.0691104  )
        32           Cu  tau(  32) = (   0.6666675   0.3849006   1.0691104  )
        33           Cu  tau(  33) = (   1.0000000   0.3849003   1.0691143  )
        34           Cu  tau(  34) = (   0.5000000   0.6735762   1.0691130  )
        35           Cu  tau(  35) = (   0.8333334   0.6735753   1.0691143  )
        36           Cu  tau(  36) = (   1.1666666   0.6735753   1.0691143  )
        37           Cu  tau(  37) = (   0.0000000   0.1924486   1.3387540  )
        38           Cu  tau(  38) = (   0.3333330   0.1924499   1.3387465  )
        39           Cu  tau(  39) = (   0.6666670   0.1924499   1.3387465  )
        40           Cu  tau(  40) = (   0.1666676   0.4811247   1.3387504  )
        41           Cu  tau(  41) = (   0.5000000   0.4811256   1.3387465  )
        42           Cu  tau(  42) = (   0.8333324   0.4811247   1.3387504  )
        43           Cu  tau(  43) = (   0.3333346   0.7698011   1.3387540  )
        44           Cu  tau(  44) = (   0.6666654   0.7698011   1.3387540  )
        45           Cu  tau(  45) = (   1.0000000   0.7698014   1.3387504  )
        46           Cu  tau(  46) = (   0.0000000   0.0000000   1.6083750  )
        47           Cu  tau(  47) = (   0.3333333   0.0000005   1.6083624  )
        48           Cu  tau(  48) = (   0.6666667   0.0000005   1.6083624  )
        49           Cu  tau(  49) = (   0.1666671   0.2886748   1.6083624  )
        50           Cu  tau(  50) = (   0.5000000   0.2886751   1.6083553  )
        51           Cu  tau(  51) = (   0.8333329   0.2886748   1.6083624  )
        52           Cu  tau(  52) = (   0.3333338   0.5773500   1.6083624  )
        53           Cu  tau(  53) = (   0.6666662   0.5773500   1.6083624  )
        54           Cu  tau(  54) = (   1.0000000   0.5773503   1.6083570  )
        55           C   tau(  55) = (   0.6567407   0.3959883   2.0103660  )
        56           C   tau(  56) = (   0.5046394   0.3028152   2.0103659  )
        57           C   tau(  57) = (   0.3478975   0.3879497   2.0103659  )
        58           C   tau(  58) = (   0.3432593   0.5662630   2.0103660  )
        59           C   tau(  59) = (   0.4953606   0.6594361   2.0103659  )
        60           C   tau(  60) = (   0.6521025   0.5743016   2.0103659  )
        61           H   tau(  61) = (   0.7789959   0.3295665   2.0104442  )
        62           H   tau(  62) = (   0.5082587   0.1637263   2.0104442  )
        63           H   tau(  63) = (   0.2292624   0.3152577   2.0104442  )
        64           H   tau(  64) = (   0.2210041   0.6326847   2.0104442  )
        65           H   tau(  65) = (   0.4917413   0.7985249   2.0104442  )
        66           H   tau(  66) = (   0.7707376   0.6469936   2.0104442  )

     number of k points=    10  gaussian smearing, width (Ry)=  0.0200
                       cart. coord. in units 2pi/alat
        k(    1) = (   0.0000000   0.0000000   0.0000000), wk =   0.1250000
        k(    2) = (   0.0000000   0.2886751   0.0000000), wk =   0.2500000
        k(    3) = (   0.0000000  -0.5773503   0.0000000), wk =   0.1250000
        k(    4) = (   0.2500000  -0.7216878   0.0000000), wk =   0.2500000
        k(    5) = (  -0.2500000   0.1443376   0.0000000), wk =   0.2500000
        k(    6) = (   0.2500000   0.1443376   0.0000000), wk =   0.2500000
        k(    7) = (   0.5000000  -0.2886751   0.0000000), wk =   0.1250000
        k(    8) = (  -0.5000000  -0.2886751   0.0000000), wk =   0.1250000
        k(    9) = (  -0.2500000  -0.7216878   0.0000000), wk =   0.2500000
        k(   10) = (  -0.5000000  -0.5773503   0.0000000), wk =   0.2500000

     Initial potential from superposition of free atoms
     Check: negative starting charge=   -0.000784

     starting charge 1001.99960, renormalised to 1056.00000

     negative rho (up, down):  8.258E-04 0.000E+00

     %%%%%%%%%%%%%%%%%%%%%%%%%%%%%%%%%%%%%%%%%%%%%%%%%%%%%%%%%%%%%%%%%%%%%%%%
     %                                                                      %
     % You are using vdW-DF, which was implemented by the Thonhauser group. %
     % Please cite the following two papers that made this development      %
     % possible and the two reviews that describe the various versions:     %
     %                                                                      %
     %   T. Thonhauser et al., PRL 115, 136402 (2015).                      %
     %   T. Thonhauser et al., PRB 76, 125112 (2007).                       %
     %   K. Berland et al., Rep. Prog. Phys. 78, 066501 (2015).             %
     %   D.C. Langreth et al., J. Phys.: Condens. Matter 21, 084203 (2009). %
     %                                                                      %
     %                                                                      %
     % If you are calculating the stress with vdW-DF, please also cite:     %
     %                                                                      %
     %   R. Sabatini et al., J. Phys.: Condens. Matter 24, 424209 (2012).   %
     %                                                                      %
     %%%%%%%%%%%%%%%%%%%%%%%%%%%%%%%%%%%%%%%%%%%%%%%%%%%%%%%%%%%%%%%%%%%%%%%%

     Starting wfcs are  732 randomized atomic wfcs

     Self-consistent Calculation

     iteration #  1     ecut=    50.00 Ry     beta= 0.30
     Davidson diagonalization with overlap
     ethr =  1.00E-02,  avg # of iterations =  6.1

[...]

     total energy              =  -18870.77679613 Ry
     Harris-Foulkes estimate   =  -22009.33601551 Ry
     estimated scf accuracy    <    6202.72522345 Ry

     iteration #  2     ecut=    50.00 Ry     beta= 0.30
     Davidson diagonalization with overlap
     c_bands:  3 eigenvalues not converged
     ethr =  1.00E-02,  avg # of iterations = 18.9

[...]

     total energy              =  -21903.76249720 Ry
     Harris-Foulkes estimate   =  -21903.76249722 Ry
     estimated scf accuracy    <       0.00000001 Ry

     iteration # 37     ecut=    50.00 Ry     beta= 0.30
     Davidson diagonalization with overlap
     ethr =  1.01E-12,  avg # of iterations =  2.0

     negative rho (up, down):  2.561E-03 0.000E+00

     End of self-consistent calculation

          k = 0.0000 0.0000 0.0000 ( 61453 PWs)   bands (ev):

  -107.7712-107.7673-107.7625-107.7625-107.7620-107.7615-107.7615-107.7615
  -107.7601-107.7588-107.7588-107.7583-107.7583-107.7576-107.7576-107.7574
  -107.7569-107.7567-107.7535-107.7535-107.7532-107.7517-107.7517-107.7506
  -107.7486-107.7486-107.7478-107.7456-107.7444-107.7428-107.7428-107.7427
  -107.7427-107.7415-107.7404-107.7385-107.5602-107.5572-107.5572-107.5500
  -107.5476-107.5476-107.5397-107.5374-107.5374-107.5084-107.5035-107.5035
  -107.5035-107.5030-107.5030-107.5030-107.5006-107.5006 -65.2232 -65.2118
   -65.2096 -65.2096 -65.2090 -65.2090 -65.2080 -65.2028 -65.2025 -65.2025
   -65.2014 -65.2014 -65.2006 -65.2005 -65.2005 -65.1980 -65.1976 -65.1976
   -65.1972 -65.1959 -65.1913 -65.1913 -65.1901 -65.1888 -65.1884 -65.1884
   -65.1871 -65.1871 -65.1871 -65.1865 -65.1865 -65.1853 -65.1853 -65.1850
   -65.1833 -65.1829 -65.1829 -65.1824 -65.1781 -65.1781 -65.1778 -65.1768
   -65.1765 -65.1765 -65.1760 -65.1760 -65.1729 -65.1724 -65.1724 -65.1700
   -65.1697 -65.1693 -65.1693 -65.1692 -65.1692 -65.1686 -65.1642 -65.1623
   -65.1623 -65.1614 -65.1614 -65.1607 -65.1604 -65.1604 -65.1598 -65.1596
   -65.1596 -65.1592 -65.1580 -65.1574 -65.1574 -65.1570 -65.1570 -65.1546
   -65.1546 -65.1515 -65.1514 -65.1513 -65.1513 -65.1509 -65.1509 -65.1499
   -65.1499 -65.1496 -65.1488 -65.1488 -65.1487 -65.1464 -65.1448 -65.1448
   -65.1446 -65.1436 -65.1436 -65.1436 -65.1428 -65.1428 -65.1374 -65.1374
   -65.1366 -65.1366 -65.1366 -65.1357 -65.1354 -65.1354 -65.1320 -65.1320
   -65.1252 -65.1252 -65.0113 -65.0112 -65.0110 -65.0035 -65.0023 -65.0022
   -65.0022 -64.9988 -64.9988 -64.9921 -64.9738 -64.9692 -64.9692 -64.9670
   -64.9670 -64.9630 -64.9627 -64.9627 -64.9626 -64.9625 -64.9623 -64.9623
   -64.9600 -64.9600 -64.9598 -64.9594 -64.9530 -64.9530 -64.9417 -64.9391
   -64.9390 -64.9289 -64.9275 -64.9275 -64.9273 -64.9273 -64.9273 -64.9267
   -64.9267 -64.9266 -64.9173 -64.9152 -64.9152 -64.9151 -64.9151 -64.8803
   -64.8757 -64.8757 -64.8757 -64.8751 -64.8751 -64.8751 -64.8729 -64.8729
   -12.8893 -10.1352 -10.1350  -6.5332  -6.5327  -4.6055  -4.0345  -3.4178
    -2.9970  -2.6247  -2.4770  -1.9663  -1.9662  -1.3920  -1.0734  -1.0689
    -1.0689  -1.0685  -1.0685  -1.0685  -0.8725  -0.6673  -0.6673  -0.6658
    -0.6658  -0.6655  -0.6518  -0.4142  -0.1701  -0.1701  -0.1690  -0.1684
    -0.1684  -0.1662  -0.1480  -0.0273  -0.0271   0.2789   0.2789   0.2845
     0.2862   0.2862   0.2911   0.6281   0.6281   0.6343   0.6347   0.6347
     0.6385   0.7603   0.7603   0.7616   0.7622   0.7622   0.7634   0.8095
     0.8095   0.8108   0.8108   0.8110   0.8122   0.8410   0.8410   0.8549
     0.8549   0.8635   0.8636   0.9594   0.9596   0.9697   0.9697   0.9820
     0.9820   0.9847   0.9868   0.9868   0.9885   0.9998   0.9998   1.0009
     1.0010   1.0420   1.0420   1.0934   1.0934   1.1870   1.1870   1.1949
     1.1949   1.1981   1.1988   1.1988   1.2011   1.2379   1.2379   1.4177
     1.4177   1.4350   1.4350   1.4358   1.4376   1.5655   1.5655   1.5722
     1.5722   1.5788   1.5788   1.5902   1.5902   1.5911   1.5924   1.6298
     1.6300   1.6326   1.6500   1.6784   1.6785   1.7039   1.7039   1.7047
     1.7049   1.7163   1.7164   1.7379   1.7379   1.7449   1.7449   1.7725
     1.7814   1.7814   1.7890   1.7890   1.7890   1.7912   1.8178   1.8178
     1.8310   1.8310   1.8417   1.8423   1.8423   1.8430   1.8571   1.8572
     1.8629   1.8631   1.8631   1.8641   1.8644   1.8644   1.8702   1.8702
     1.8827   1.9650   1.9650   1.9815   1.9831   1.9877   1.9877   1.9901
     1.9923   2.0099   2.0099   2.0194   2.0194   2.0417   2.0419   2.0481
     2.0481   2.0633   2.0633   2.0636   2.0642   2.0642   2.0647   2.0654
     2.0654   2.2478   2.2478   2.2486   2.2539   2.2940   2.2940   2.3197
     2.3202   2.3202   2.3218   2.3218   2.3218   2.3740   2.3740   2.3779
     2.3802   2.4005   2.4005   2.4031   2.4031   2.4241   2.4241   2.4261
     2.4262   2.4789   2.4920   2.4920   2.5190   2.5190   2.5199   2.5199
     2.5214   2.5292   2.5389   2.5389   2.5480   2.5480   2.5503   2.5518
     2.5518   2.5523   2.5523   2.5524   2.5605   2.5605   2.6256   2.6256
     2.6917   2.6920   2.6920   2.6929   2.6931   2.6931   2.7462   2.7472
     2.7472   2.7491   2.7526   2.7526   2.7526   2.7533   2.7535   2.7535
     2.7587   2.7587   2.8106   2.8106   2.8193   2.8200   2.8200   2.8210
     2.8210   2.8213   2.8320   2.8321   2.8321   2.8328   2.8330   2.8330
     2.8547   2.8547   2.8547   2.8552   2.8555   2.8555   2.8754   2.8754
[...]
     3.0955   3.0963   3.0963   3.0963   3.9294   4.0146   4.0147   4.0198
     4.0626   4.0808   4.0809   4.5514   5.4282   5.4283   5.4477   5.4878
     5.5258   5.5258   6.9015   6.9016   7.0146   7.2051   7.3145   7.3445
     7.3445   7.4387   7.4388   7.8904   7.8904   7.8909   7.8912   7.9075
     7.9075   8.1866   8.2815   8.2815   8.3048   8.3048   8.4554   8.6879
     8.6918   8.8018   8.8899   8.8899   8.9460   8.9471   9.0180   9.1324
     9.1324   9.3366   9.4484   9.5726   9.5726   9.5829   9.5829   9.8486
     9.8488   9.8887   9.9548   9.9579  10.5553  10.5862  10.6985  10.6985
    10.7507  10.7507  10.8847  10.8848  10.9460  10.9460  11.0093  11.0238
    11.0239  11.1436  11.2097  11.3462  11.3462  11.3975  11.3975  11.4220
    11.5250  11.6237  11.6237  11.7875  11.8402  11.8402  11.8818  11.8818
    11.9393  11.9634  11.9634  11.9842  11.9843  12.0401  12.1400  12.2326
    12.2326  12.2674  12.3087  12.3710  12.3711  12.5170  12.5170  12.7673
    12.8720  12.8804  12.8805  13.0249  13.0250  13.0486  13.0526  13.0800
    13.1644  13.1755

[...]

          k =-0.2500 0.1443 0.0000 ( 61417 PWs)   bands (ev):

[...]

          k = 0.5000-0.2887 0.0000 ( 61408 PWs)   bands (ev):

[...]

          k =-0.5000-0.5774 0.0000 ( 61343 PWs)   bands (ev):

  -107.7710-107.7664-107.7646-107.7641-107.7613-107.7611-107.7607-107.7600
  -107.7599-107.7595-107.7589-107.7586-107.7583-107.7577-107.7575-107.7571
  -107.7565-107.7563-107.7549-107.7543-107.7528-107.7513-107.7512-107.7504
  -107.7488-107.7485-107.7470-107.7456-107.7452-107.7444-107.7430-107.7419
  -107.7416-107.7411-107.7409-107.7386-107.5600-107.5574-107.5573-107.5502
  -107.5476-107.5474-107.5398-107.5374-107.5373-107.5071-107.5057-107.5054
  -107.5028-107.5025-107.5017-107.5016-107.5012-107.5010 -65.2193 -65.2153
   -65.2138 -65.2134 -65.2124 -65.2121 -65.2114 -65.2100 -65.2087 -65.2068
   -65.2064 -65.2055 -65.2028 -65.2014 -65.2006 -65.2000 -65.1999 -65.1975
   -65.1963 -65.1942 -65.1939 -65.1936 -65.1931 -65.1920 -65.1914 -65.1909
   -65.1899 -65.1893 -65.1872 -65.1862 -65.1833 -65.1815 -65.1811 -65.1802
   -65.1781 -65.1777 -65.1772 -65.1765 -65.1762 -65.1741 -65.1731 -65.1728
   -65.1723 -65.1714 -65.1707 -65.1703 -65.1687 -65.1674 -65.1669 -65.1664
   -65.1662 -65.1660 -65.1658 -65.1648 -65.1643 -65.1638 -65.1629 -65.1628
   -65.1621 -65.1611 -65.1605 -65.1604 -65.1603 -65.1596 -65.1583 -65.1575
   -65.1572 -65.1567 -65.1562 -65.1561 -65.1556 -65.1552 -65.1547 -65.1544
   -65.1542 -65.1536 -65.1530 -65.1524 -65.1521 -65.1513 -65.1511 -65.1504
   -65.1495 -65.1494 -65.1492 -65.1489 -65.1485 -65.1483 -65.1483 -65.1479
   -65.1465 -65.1456 -65.1455 -65.1440 -65.1433 -65.1429 -65.1427 -65.1423
   -65.1419 -65.1416 -65.1397 -65.1388 -65.1385 -65.1376 -65.1342 -65.1323
   -65.1320 -65.1283 -65.0206 -65.0188 -65.0166 -65.0079 -65.0048 -65.0017
   -64.9877 -64.9869 -64.9834 -64.9797 -64.9780 -64.9761 -64.9759 -64.9738
   -64.9732 -64.9730 -64.9709 -64.9666 -64.9662 -64.9630 -64.9628 -64.9625
   -64.9595 -64.9556 -64.9432 -64.9415 -64.9411 -64.9403 -64.9402 -64.9391
   -64.9391 -64.9346 -64.9344 -64.9337 -64.9335 -64.9290 -64.9271 -64.9266
   -64.9265 -64.9225 -64.9224 -64.9184 -64.9174 -64.9152 -64.9151 -64.8791
   -64.8777 -64.8774 -64.8751 -64.8746 -64.8740 -64.8739 -64.8734 -64.8732
   -12.8877 -10.1406 -10.1381  -6.5357  -6.5273  -4.5512  -3.4013  -2.9413
    -2.8009  -2.6319  -2.5957  -2.5950  -2.0653  -2.0420  -2.0170  -1.9842
    -1.8808  -1.2155  -1.1665  -0.9435  -0.6883  -0.5840  -0.5824  -0.2367
    -0.2345  -0.2039  -0.1687  -0.0827  -0.0505   0.0073   0.0076   0.0191
     0.1789   0.1813   0.2020   0.2023   0.2183   0.2682   0.2790   0.2793
     0.2974   0.3963   0.3986   0.4008   0.4014   0.4677   0.4781   0.5373
     0.5404   0.5511   0.5623   0.5916   0.5917   0.5935   0.6113   0.6131
     0.6715   0.6732   0.7058   0.7067   0.7361   0.7362   0.7646   0.7716
     0.7730   0.8342   0.8349   0.8652   0.8852   0.9009   0.9016   0.9693
     0.9764   1.0265   1.0459   1.0470   1.0698   1.0713   1.1314   1.1390
     1.1419   1.1580   1.1585   1.1673   1.2094   1.2344   1.2361   1.2794
     1.2806   1.3011   1.3059   1.3079   1.3117   1.3297   1.3302   1.3811
     1.3858   1.3897   1.3919   1.3968   1.4063   1.4265   1.4281   1.4341
     1.4391   1.4606   1.4658   1.4829   1.4880   1.4909   1.5081   1.5383
     1.5706   1.5717   1.5825   1.5861   1.5869   1.6086   1.6182   1.6335
     1.6359   1.6581   1.6714   1.6780   1.6791   1.6869   1.7065   1.7147
     1.7230   1.7316   1.7406   1.7427   1.7464   1.7780   1.7844   1.7864
     1.7874   1.7991   1.8084   1.8178   1.8195   1.8332   1.8361   1.8459
     1.8490   1.8716   1.8844   1.8985   1.9024   1.9120   1.9187   1.9239
     1.9266   1.9327   1.9405   1.9445   1.9446   1.9520   1.9584   1.9588
     1.9713   1.9800   1.9900   1.9929   2.0119   2.0206   2.0288   2.0330
     2.0466   2.0479   2.0501   2.0508   2.0537   2.0559   2.0586   2.0640
     2.0656   2.0790   2.1292   2.1309   2.1903   2.1915   2.1923   2.1980
     2.2020   2.2063   2.2247   2.2257   2.2494   2.2589   2.2616   2.2724
     2.2907   2.2924   2.3298   2.3305   2.3341   2.3630   2.3643   2.3645
     2.3659   2.3668   2.3690   2.3712   2.3750   2.3843   2.4020   2.4037
     2.4452   2.4460   2.4523   2.4529   2.4596   2.4656   2.4744   2.4964
     2.5018   2.5063   2.5184   2.5377   2.5405   2.5595   2.5687   2.5695
     2.5810   2.5851   2.6128   2.6193   2.6244   2.6316   2.6547   2.6576
     2.6769   2.6815   2.6815   2.7002   2.7042   2.7224   2.7265   2.7289
     2.7303   2.7357   2.7420   2.7442   2.7503   2.7575   2.7699   2.7878
     2.8177   2.8189   2.8204   2.8298   2.8708   2.8719   2.8850   2.8914
     2.9165   2.9282   2.9308   2.9370   2.9381   2.9447   2.9510   2.9806
[...]
     4.2585   4.2882   4.3565   4.3580   4.3732   4.6320   4.7312   4.7533
     4.7631   4.7635   4.9268   5.2033   5.2317   5.2343   5.6845   5.7158
     5.7502   5.8511   5.9685   5.9797   5.9813   6.1173   6.1315   6.2003
     6.2854   6.6378   6.7052   6.7186   6.8840   6.9892   7.0278   7.0795
     7.1036   7.1818   7.2247   7.4326   7.6523   7.7457   7.9541   7.9876
     8.4585   8.5390   8.5423   8.6450   8.7503   8.9430   9.1620   9.1686
     9.2313   9.3321   9.3638   9.4968   9.5238   9.6274   9.7133   9.7471
     9.8132   9.9708  10.0220  10.1272  10.1860  10.3792  10.4243  10.4750
    10.5291  10.6345  10.7685  10.8635  10.9128  11.0233  11.0963  11.2022
    11.2170  11.2606  11.4620  11.5276  11.5397  11.6086  11.6227  11.7171
    11.7564  11.8568  11.8955  11.9254  11.9838  12.0927  12.1234  12.1875
    12.3011  12.3926  12.4623  12.4737  12.5604  12.6094  12.6203  12.6719
    12.7187  12.7885  12.8357  12.8550  12.9492  13.0567  13.1703  13.1784
    13.3139  13.3317  13.3855  13.4373  13.4973  13.5532  13.5853  13.6537
    13.7042  13.7173

     the Fermi energy is     4.6780 ev

!    total energy              =  -21903.76249719 Ry
     Harris-Foulkes estimate   =  -21903.76249721 Ry
     estimated scf accuracy    <          3.9E-09 Ry

     The total energy is the sum of the following terms:

     one-electron contribution = -208170.46730512 Ry
     hartree contribution      =  104290.17990454 Ry
     xc contribution           =   -2143.23614293 Ry
     ewald contribution        =   84119.81387223 Ry
     smearing contrib. (-TS)   =      -0.05282592 Ry

     convergence has been achieved in  37 iterations

     General routines

     Parallel routines

      31h

   This run was terminated on:   1:21: 6  22Nov2019

   JOB DONE.