     Program PWSCF v.6.3MaX starts on 15Nov2019 at 17:12:28

     R & G space division:  proc/nbgrp/npool/nimage =      16
     Waiting for input...
     Reading input from standard input

     Current dimensions of program PWSCF are:
     Max number of different atomic species (ntypx) = 10
     Max number of k-points (npk) =  40000
     Max angular momentum in pseudopotentials (lmaxx) =  3
     Message from routine iosys:
     minimal I/O required, wf_collect reset to FALSE

     IMPORTANT: XC functional enforced from input :
     Exchange-correlation      = VDW-DF ( 1  4  4  0 1 0)
     Any further DFT definition will be discarded
     Please, verify this is what you really want

     bravais-lattice index     =            0
     lattice parameter (alat)  =      14.8058  a.u.
     unit-cell volume          =   10282.4791 (a.u.)^3
     number of atoms/cell      =           66
     number of atomic types    =            3
     number of electrons       =      1056.00
     number of Kohn-Sham states=          634
     kinetic-energy cutoff     =      50.0000  Ry
     charge density cutoff     =     600.0000  Ry
     convergence threshold     =      1.0E-08
     mixing beta               =       0.3000
     number of iterations used =            8  plain     mixing
     Exchange-correlation      = VDW-DF ( 1  4  4  0 1 0)

     celldm(1)=  14.805786  celldm(2)=   0.000000  celldm(3)=   0.000000
     celldm(4)=   0.000000  celldm(5)=   0.000000  celldm(6)=   0.000000

     crystal axes: (cart. coord. in units of alat)
               a(1) = (   1.000000   0.000000   0.000000 )
               a(2) = (   0.500000   0.866025   0.000000 )
               a(3) = (   0.000000   0.000000   3.658245 )

     reciprocal axes: (cart. coord. in units 2 pi/alat)
               b(1) = (  1.000000 -0.577350  0.000000 )
               b(2) = (  0.000000  1.154701  0.000000 )
               b(3) = (  0.000000  0.000000  0.273355 )

     PseudoPot. # 1 for Cu read from file:
     /deac/thonhauserGrp/chakrad/calculations/atomandmolecule-qe6.2.1-i2012-C6modif/all_pbe_UPF_v1.5/cu_pbe_v1.2.uspp.F.UPF
     MD5 check sum: 6e991ff952a84172a2a52a1c1e996048
     Pseudo is Ultrasoft + core correction, Zval = 19.0
     Generated by new atomic code, or converted to UPF format
     Using radial grid of  867 points,  6 beta functions with:
                l(1) =   0
                l(2) =   0
                l(3) =   1
                l(4) =   1
                l(5) =   2
                l(6) =   2
     Q(r) pseudized with  8 coefficients,  rinner =    1.150   1.150   1.150
                                                       1.150   1.150

     PseudoPot. # 2 for C  read from file:
     /deac/thonhauserGrp/chakrad/calculations/atomandmolecule-qe6.2.1-i2012-C6modif/all_pbe_UPF_v1.5/c_pbe_v1.2.uspp.F.UPF
     MD5 check sum: d1aef80898a10debaa0f26306b886e00
     Pseudo is Ultrasoft + core correction, Zval =  4.0
     Generated by new atomic code, or converted to UPF format
     Using radial grid of  721 points,  4 beta functions with:
                l(1) =   0
                l(2) =   0
                l(3) =   1
                l(4) =   1
     Q(r) pseudized with  8 coefficients,  rinner =    1.100   1.100   1.100

     PseudoPot. # 3 for H  read from file:
     /deac/thonhauserGrp/chakrad/calculations/atomandmolecule-qe6.2.1-i2012-C6modif/all_pbe_UPF_v1.5/h_pbe_v1.4.uspp.F.UPF
     MD5 check sum: 761ae9a214b05c3daf00ab9f6b793d6f
     Pseudo is Ultrasoft, Zval =  1.0
     Generated by new atomic code, or converted to UPF format
     Using radial grid of  615 points,  2 beta functions with:
                l(1) =   0
                l(2) =   0
     Q(r) pseudized with  8 coefficients,  rinner =    0.700

     vdW kernel table read from file vdW_kernel_table
     MD5 check sum: cc9485f6209b1096fbef62427c856dab

     atomic species   valence    mass     pseudopotential
        Cu            19.00     1.00000     Cu( 1.00)
        C              4.00     1.00000     C ( 1.00)
        H              1.00     1.00000     H ( 1.00)

     No symmetry found

   Cartesian axes

     site n.     atom                  positions (alat units)
         1           Cu  tau(   1) = (   0.1666667   0.0962250   0.2552686  )
         2           Cu  tau(   2) = (   0.5000000   0.0962250   0.2552686  )
         3           Cu  tau(   3) = (   0.8333333   0.0962250   0.2552686  )
         4           Cu  tau(   4) = (   0.3333333   0.3849002   0.2552686  )
         5           Cu  tau(   5) = (   0.6666667   0.3849002   0.2552686  )
         6           Cu  tau(   6) = (   1.0000000   0.3849002   0.2552686  )
         7           Cu  tau(   7) = (   0.5000000   0.6735753   0.2552686  )
         8           Cu  tau(   8) = (   0.8333333   0.6735753   0.2552686  )
         9           Cu  tau(   9) = (   1.1666667   0.6735753   0.2552686  )
        10           Cu  tau(  10) = (   0.0000000   0.1924501   0.5274341  )
        11           Cu  tau(  11) = (   0.3333333   0.1924501   0.5274341  )
        12           Cu  tau(  12) = (   0.6666667   0.1924501   0.5274341  )
        13           Cu  tau(  13) = (   0.1666667   0.4811252   0.5274341  )
        14           Cu  tau(  14) = (   0.5000000   0.4811252   0.5274341  )
        15           Cu  tau(  15) = (   0.8333333   0.4811252   0.5274341  )
        16           Cu  tau(  16) = (   0.3333333   0.7698004   0.5274341  )
        17           Cu  tau(  17) = (   0.6666667   0.7698004   0.5274341  )
        18           Cu  tau(  18) = (   1.0000000   0.7698004   0.5274341  )
        19           Cu  tau(  19) = (   0.0000000   0.0000000   0.7995997  )
        20           Cu  tau(  20) = (   0.3333333   0.0000000   0.7995997  )
        21           Cu  tau(  21) = (   0.6666667   0.0000000   0.7995997  )
        22           Cu  tau(  22) = (   0.1666667   0.2886751   0.7995997  )
        23           Cu  tau(  23) = (   0.5000000   0.2886751   0.7995997  )
        24           Cu  tau(  24) = (   0.8333333   0.2886751   0.7995997  )
        25           Cu  tau(  25) = (   0.3333333   0.5773503   0.7995997  )
        26           Cu  tau(  26) = (   0.6666667   0.5773503   0.7995997  )
        27           Cu  tau(  27) = (   1.0000000   0.5773503   0.7995997  )
        28           Cu  tau(  28) = (   0.1666659   0.0962246   1.0691130  )
        29           Cu  tau(  29) = (   0.5000000   0.0962241   1.0691104  )
        30           Cu  tau(  30) = (   0.8333341   0.0962246   1.0691130  )
        31           Cu  tau(  31) = (   0.3333325   0.3849006   1.0691104  )
        32           Cu  tau(  32) = (   0.6666675   0.3849006   1.0691104  )
        33           Cu  tau(  33) = (   1.0000000   0.3849003   1.0691143  )
        34           Cu  tau(  34) = (   0.5000000   0.6735762   1.0691130  )
        35           Cu  tau(  35) = (   0.8333334   0.6735753   1.0691143  )
        36           Cu  tau(  36) = (   1.1666666   0.6735753   1.0691143  )
        37           Cu  tau(  37) = (   0.0000000   0.1924486   1.3387540  )
        38           Cu  tau(  38) = (   0.3333330   0.1924499   1.3387465  )
        39           Cu  tau(  39) = (   0.6666670   0.1924499   1.3387465  )
        40           Cu  tau(  40) = (   0.1666676   0.4811247   1.3387504  )
        41           Cu  tau(  41) = (   0.5000000   0.4811256   1.3387465  )
        42           Cu  tau(  42) = (   0.8333324   0.4811247   1.3387504  )
        43           Cu  tau(  43) = (   0.3333346   0.7698011   1.3387540  )
        44           Cu  tau(  44) = (   0.6666654   0.7698011   1.3387540  )
        45           Cu  tau(  45) = (   1.0000000   0.7698014   1.3387504  )
        46           Cu  tau(  46) = (   0.0000000   0.0000000   1.6083750  )
        47           Cu  tau(  47) = (   0.3333333   0.0000005   1.6083624  )
        48           Cu  tau(  48) = (   0.6666667   0.0000005   1.6083624  )
        49           Cu  tau(  49) = (   0.1666671   0.2886748   1.6083624  )
        50           Cu  tau(  50) = (   0.5000000   0.2886751   1.6083553  )
        51           Cu  tau(  51) = (   0.8333329   0.2886748   1.6083624  )
        52           Cu  tau(  52) = (   0.3333338   0.5773500   1.6083624  )
        53           Cu  tau(  53) = (   0.6666662   0.5773500   1.6083624  )
        54           Cu  tau(  54) = (   1.0000000   0.5773503   1.6083570  )
        55           C   tau(  55) = (   0.6567407   0.3959883   2.0933283  )
        56           C   tau(  56) = (   0.5046394   0.3028152   2.0933282  )
        57           C   tau(  57) = (   0.3478975   0.3879497   2.0933282  )
        58           C   tau(  58) = (   0.3432593   0.5662630   2.0933283  )
        59           C   tau(  59) = (   0.4953606   0.6594361   2.0933282  )
        60           C   tau(  60) = (   0.6521025   0.5743016   2.0933282  )
        61           H   tau(  61) = (   0.7789959   0.3295665   2.0934065  )
        62           H   tau(  62) = (   0.5082587   0.1637263   2.0934065  )
        63           H   tau(  63) = (   0.2292624   0.3152577   2.0934065  )
        64           H   tau(  64) = (   0.2210041   0.6326847   2.0934065  )
        65           H   tau(  65) = (   0.4917413   0.7985249   2.0934065  )
        66           H   tau(  66) = (   0.7707376   0.6469936   2.0934065  )

     number of k points=    10  gaussian smearing, width (Ry)=  0.0200
                       cart. coord. in units 2pi/alat
        k(    1) = (   0.0000000   0.0000000   0.0000000), wk =   0.1250000
        k(    2) = (   0.0000000   0.2886751   0.0000000), wk =   0.2500000
        k(    3) = (   0.0000000  -0.5773503   0.0000000), wk =   0.1250000
        k(    4) = (   0.2500000  -0.7216878   0.0000000), wk =   0.2500000
        k(    5) = (  -0.2500000   0.1443376   0.0000000), wk =   0.2500000
        k(    6) = (   0.2500000   0.1443376   0.0000000), wk =   0.2500000
        k(    7) = (   0.5000000  -0.2886751   0.0000000), wk =   0.1250000
        k(    8) = (  -0.5000000  -0.2886751   0.0000000), wk =   0.1250000
        k(    9) = (  -0.2500000  -0.7216878   0.0000000), wk =   0.2500000
        k(   10) = (  -0.5000000  -0.5773503   0.0000000), wk =   0.2500000

     Initial potential from superposition of free atoms
     Check: negative starting charge=   -0.000708

     starting charge 1001.99960, renormalised to 1056.00000

     negative rho (up, down):  7.458E-04 0.000E+00

     %%%%%%%%%%%%%%%%%%%%%%%%%%%%%%%%%%%%%%%%%%%%%%%%%%%%%%%%%%%%%%%%%%%%%%%%
     %                                                                      %
     % You are using vdW-DF, which was implemented by the Thonhauser group. %
     % Please cite the following two papers that made this development      %
     % possible and the two reviews that describe the various versions:     %
     %                                                                      %
     %   T. Thonhauser et al., PRL 115, 136402 (2015).                      %
     %   T. Thonhauser et al., PRB 76, 125112 (2007).                       %
     %   K. Berland et al., Rep. Prog. Phys. 78, 066501 (2015).             %
     %   D.C. Langreth et al., J. Phys.: Condens. Matter 21, 084203 (2009). %
     %                                                                      %
     %                                                                      %
     % If you are calculating the stress with vdW-DF, please also cite:     %
     %                                                                      %
     %   R. Sabatini et al., J. Phys.: Condens. Matter 24, 424209 (2012).   %
     %                                                                      %
     %%%%%%%%%%%%%%%%%%%%%%%%%%%%%%%%%%%%%%%%%%%%%%%%%%%%%%%%%%%%%%%%%%%%%%%%

     Starting wfcs are  732 randomized atomic wfcs

     Self-consistent Calculation

     iteration #  1     ecut=    50.00 Ry     beta= 0.30
     Davidson diagonalization with overlap
     ethr =  1.00E-02,  avg # of iterations =  5.8

[...]

     total energy              =  -19095.71051936 Ry
     Harris-Foulkes estimate   =  -22003.96812659 Ry
     estimated scf accuracy    <    5749.48984609 Ry

     iteration #  2     ecut=    50.00 Ry     beta= 0.30
     Davidson diagonalization with overlap
     c_bands:  5 eigenvalues not converged
     ethr =  1.00E-02,  avg # of iterations = 19.0

[...]

     total energy              =  -21903.76849586 Ry
     Harris-Foulkes estimate   =  -21903.76849585 Ry
     estimated scf accuracy    <       0.00000001 Ry

     iteration # 37     ecut=    50.00 Ry     beta= 0.30
     Davidson diagonalization with overlap
     ethr =  1.21E-12,  avg # of iterations =  1.4

     negative rho (up, down):  2.316E-03 0.000E+00

     End of self-consistent calculation

          k = 0.0000 0.0000 0.0000 ( 61453 PWs)   bands (ev):

  -107.8836-107.8788-107.8773-107.8771-107.8771-107.8768-107.8768-107.8763
  -107.8748-107.8736-107.8736-107.8735-107.8735-107.8729-107.8729-107.8726
  -107.8722-107.8720-107.8694-107.8676-107.8676-107.8676-107.8670-107.8670
  -107.8669-107.8647-107.8647-107.8629-107.8588-107.8582-107.8582-107.8582
  -107.8582-107.8576-107.8559-107.8556-107.6426-107.6385-107.6385-107.6383
  -107.6369-107.6369-107.6349-107.6329-107.6329-107.6243-107.6192-107.6192
  -107.6192-107.6191-107.6191-107.6191-107.6166-107.6166 -65.3380 -65.3249
   -65.3244 -65.3244 -65.3241 -65.3241 -65.3237 -65.3168 -65.3168 -65.3168
   -65.3165 -65.3165 -65.3161 -65.3161 -65.3159 -65.3127 -65.3127 -65.3126
   -65.3124 -65.3105 -65.3048 -65.3048 -65.3047 -65.3041 -65.3040 -65.3040
   -65.3021 -65.3021 -65.3021 -65.3018 -65.3018 -65.3015 -65.3013 -65.3013
   -65.2988 -65.2988 -65.2983 -65.2982 -65.2927 -65.2927 -65.2926 -65.2922
   -65.2922 -65.2922 -65.2913 -65.2913 -65.2878 -65.2878 -65.2859 -65.2847
   -65.2846 -65.2843 -65.2843 -65.2843 -65.2843 -65.2841 -65.2826 -65.2774
   -65.2774 -65.2764 -65.2764 -65.2763 -65.2760 -65.2760 -65.2760 -65.2743
   -65.2742 -65.2742 -65.2736 -65.2733 -65.2733 -65.2728 -65.2728 -65.2701
   -65.2701 -65.2664 -65.2661 -65.2661 -65.2659 -65.2659 -65.2659 -65.2659
   -65.2658 -65.2654 -65.2653 -65.2651 -65.2651 -65.2625 -65.2597 -65.2597
   -65.2594 -65.2592 -65.2592 -65.2591 -65.2591 -65.2591 -65.2533 -65.2533
   -65.2516 -65.2516 -65.2515 -65.2513 -65.2512 -65.2512 -65.2473 -65.2473
   -65.2406 -65.2406 -65.0955 -65.0952 -65.0952 -65.0940 -65.0940 -65.0938
   -65.0915 -65.0915 -65.0915 -65.0903 -65.0785 -65.0785 -65.0784 -65.0784
   -65.0783 -65.0783 -65.0759 -65.0759 -65.0755 -65.0754 -65.0602 -65.0595
   -65.0595 -65.0584 -65.0584 -65.0579 -65.0467 -65.0467 -65.0431 -65.0431
   -65.0431 -65.0431 -65.0431 -65.0429 -65.0309 -65.0309 -65.0179 -65.0142
   -65.0141 -65.0139 -65.0125 -65.0125 -65.0101 -65.0081 -65.0081 -64.9964
   -64.9916 -64.9916 -64.9916 -64.9915 -64.9915 -64.9915 -64.9891 -64.9891
   -12.5240  -9.7827  -9.7825  -6.1956  -6.1950  -4.2730  -4.1482  -3.5274
    -2.6823  -2.5760  -2.2793  -1.6342  -1.6341  -1.4468  -1.1829  -1.1827
    -1.1827  -1.1826  -1.1826  -1.1825  -0.7791  -0.7780  -0.7780  -0.7780
    -0.7779  -0.7779  -0.5981  -0.3792  -0.2803  -0.2775  -0.2775  -0.2775
    -0.2774  -0.2774  -0.2597   0.1730   0.1730   0.1732   0.1732   0.1734
     0.1754   0.3000   0.3002   0.5230   0.5230   0.5234   0.5237   0.5237
     0.5246   0.6482   0.6482   0.6483   0.6484   0.6484   0.6486   0.6979
     0.6979   0.6980   0.6981   0.6981   0.6984   0.7259   0.7259   0.7398
     0.7398   0.7513   0.7514   0.8470   0.8470   0.8545   0.8545   0.8765
     0.8765   0.8766   0.8768   0.8768   0.8772   0.8848   0.8848   0.8859
     0.8859   0.9371   0.9371   0.9776   0.9776   1.0862   1.0862   1.0899
     1.0899   1.0902   1.0903   1.0903   1.0909   1.1223   1.1223   1.3256
     1.3256   1.3263   1.3266   1.3267   1.3275   1.4553   1.4553   1.4633
     1.4633   1.4782   1.4782   1.4788   1.4788   1.4789   1.4793   1.5170
     1.5233   1.5233   1.5369   1.5916   1.5916   1.5922   1.5922   1.5922
     1.5925   1.6051   1.6051   1.6301   1.6301   1.6619   1.6667   1.6667
     1.6777   1.6777   1.6786   1.6786   1.6787   1.6791   1.7166   1.7166
     1.7297   1.7297   1.7300   1.7300   1.7301   1.7303   1.7490   1.7491
     1.7491   1.7494   1.7494   1.7495   1.7553   1.7553   1.7726   1.8731
     1.8731   1.8775   1.8775   1.8805   1.8805   1.8807   1.8817   1.8939
     1.8939   1.9053   1.9056   1.9238   1.9238   1.9257   1.9258   1.9498
     1.9498   1.9513   1.9513   1.9513   1.9517   1.9518   1.9518   2.1220
     2.1220   2.1455   2.1457   2.1457   2.1477   2.2101   2.2103   2.2103
     2.2105   2.2105   2.2106   2.2432   2.2432   2.2771   2.2771   2.2774
     2.2790   2.2853   2.2853   2.2895   2.2895   2.3114   2.3114   2.3498
     2.3632   2.3632   2.3776   2.3776   2.4072   2.4072   2.4159   2.4160
     2.4160   2.4176   2.4398   2.4398   2.4407   2.4407   2.4407   2.4410
     2.4411   2.4411   2.4447   2.4447   2.4496   2.4496   2.5153   2.5153
     2.5795   2.5796   2.5796   2.5797   2.5798   2.5798   2.6372   2.6377
     2.6377   2.6386   2.6387   2.6387   2.6389   2.6389   2.6389   2.6390
     2.6441   2.6441   2.7037   2.7037   2.7077   2.7077   2.7078   2.7080
     2.7081   2.7081   2.7191   2.7191   2.7192   2.7194   2.7194   2.7194
     2.7437   2.7438   2.7438   2.7440   2.7440   2.7440   2.7768   2.7768
[...]
     2.9838   2.9842   2.9842   2.9842   3.7993   3.9171   3.9171   3.9172
     3.9275   3.9361   3.9361   4.3837   5.3491   5.3491   5.3520   5.3654
     5.3782   5.3783   7.0572   7.0572   7.0639   7.1281   7.1854   7.1854
     7.2604   7.5083   7.5085   7.7765   7.7766   7.7768   7.7768   7.7922
     7.7922   8.1617   8.1707   8.1707   8.1897   8.1897   8.5119   8.5904
     8.5910   8.7767   8.8478   8.8482   8.8588   8.8588   8.9505   8.9505
     8.9838   9.1911   9.4632   9.4632   9.4689   9.4689   9.4948   9.7932
     9.7934   9.8475   9.8475   9.8765  10.5324  10.5573  10.6310  10.6310
    10.6391  10.6391  10.7784  10.7784  10.8269  10.8269  10.8442  11.0469
    11.1826  11.1826  11.2760  11.2760  11.2833  11.2918  11.2918  11.3214
    11.4113  11.7030  11.7030  11.7831  11.7874  11.7874  11.8386  11.8386
    11.8536  11.8536  11.8562  11.9392  11.9392  12.0137  12.0943  12.2063
    12.2063  12.2356  12.3030  12.3030  12.3276  12.4559  12.4559  12.6850
    12.9189  12.9207  12.9208  12.9729  12.9808  12.9809  12.9822  13.0270
    13.0661  13.0814

[...]

          k =-0.2500 0.1443 0.0000 ( 61417 PWs)   bands (ev):

[...]

          k = 0.5000-0.2887 0.0000 ( 61408 PWs)   bands (ev):

[...]

          k =-0.5000-0.5774 0.0000 ( 61343 PWs)   bands (ev):

  -107.8821-107.8804-107.8797-107.8775-107.8762-107.8761-107.8758-107.8751
  -107.8748-107.8743-107.8742-107.8738-107.8736-107.8728-107.8726-107.8722
  -107.8720-107.8710-107.8698-107.8694-107.8693-107.8670-107.8665-107.8659
  -107.8658-107.8652-107.8650-107.8618-107.8605-107.8601-107.8579-107.8575
  -107.8569-107.8566-107.8564-107.8559-107.6416-107.6402-107.6392-107.6377
  -107.6366-107.6364-107.6348-107.6330-107.6328-107.6230-107.6215-107.6214
  -107.6186-107.6185-107.6175-107.6174-107.6174-107.6170 -65.3339 -65.3294
   -65.3289 -65.3281 -65.3278 -65.3268 -65.3265 -65.3251 -65.3234 -65.3219
   -65.3216 -65.3205 -65.3177 -65.3159 -65.3155 -65.3154 -65.3152 -65.3127
   -65.3097 -65.3091 -65.3090 -65.3088 -65.3086 -65.3071 -65.3069 -65.3060
   -65.3052 -65.3050 -65.3023 -65.3019 -65.2970 -65.2967 -65.2962 -65.2955
   -65.2930 -65.2929 -65.2921 -65.2919 -65.2916 -65.2887 -65.2882 -65.2879
   -65.2870 -65.2863 -65.2859 -65.2858 -65.2848 -65.2820 -65.2817 -65.2817
   -65.2815 -65.2814 -65.2812 -65.2800 -65.2798 -65.2795 -65.2792 -65.2778
   -65.2776 -65.2763 -65.2761 -65.2758 -65.2756 -65.2752 -65.2735 -65.2724
   -65.2722 -65.2721 -65.2719 -65.2715 -65.2711 -65.2706 -65.2704 -65.2702
   -65.2701 -65.2688 -65.2687 -65.2679 -65.2674 -65.2672 -65.2668 -65.2654
   -65.2651 -65.2644 -65.2643 -65.2643 -65.2641 -65.2641 -65.2639 -65.2638
   -65.2619 -65.2617 -65.2613 -65.2594 -65.2592 -65.2584 -65.2583 -65.2582
   -65.2574 -65.2573 -65.2551 -65.2541 -65.2540 -65.2532 -65.2495 -65.2476
   -65.2475 -65.2438 -65.1081 -65.1075 -65.1050 -65.0983 -65.0949 -65.0939
   -65.0919 -65.0918 -65.0890 -65.0825 -65.0785 -65.0785 -65.0751 -65.0733
   -65.0720 -65.0717 -65.0669 -65.0660 -65.0654 -65.0648 -65.0590 -65.0588
   -65.0569 -65.0561 -65.0561 -65.0542 -65.0540 -65.0503 -65.0503 -65.0500
   -65.0495 -65.0494 -65.0429 -65.0383 -65.0383 -65.0342 -65.0170 -65.0156
   -65.0147 -65.0134 -65.0123 -65.0121 -65.0100 -65.0082 -65.0080 -64.9951
   -64.9938 -64.9937 -64.9910 -64.9909 -64.9900 -64.9900 -64.9899 -64.9896
   -12.5224  -9.7882  -9.7857  -6.1982  -6.1897  -4.2201  -3.5147  -2.9090
    -2.7086  -2.7084  -2.6268  -2.2864  -2.1344  -2.1342  -1.9868  -1.7106
    -1.6699  -1.2769  -1.2747  -0.9056  -0.6978  -0.6977  -0.4146  -0.3471
    -0.3462  -0.3032  -0.2735  -0.1069  -0.1068  -0.0974   0.0680   0.0686
     0.0877   0.0878   0.1041   0.1538   0.1660   0.1661   0.1832   0.2397
     0.2796   0.2819   0.2857   0.2888   0.2890   0.3625   0.3658   0.4269
     0.4272   0.4390   0.4498   0.4773   0.4774   0.4802   0.4988   0.4996
     0.5672   0.5673   0.5924   0.5943   0.6245   0.6246   0.6495   0.6588
     0.6589   0.7274   0.7274   0.7540   0.7763   0.7869   0.7870   0.8625
     0.8629   0.9137   0.9331   0.9333   0.9626   0.9627   1.0199   1.0291
     1.0293   1.0446   1.0446   1.0592   1.0973   1.1249   1.1249   1.1672
     1.1675   1.1946   1.2000   1.2004   1.2016   1.2179   1.2181   1.2777
     1.2779   1.2808   1.2808   1.2838   1.2964   1.3132   1.3143   1.3275
     1.3280   1.3554   1.3564   1.3792   1.3811   1.3817   1.4008   1.4249
     1.4658   1.4739   1.4741   1.4744   1.4753   1.5042   1.5232   1.5272
     1.5279   1.5648   1.5649   1.5659   1.5687   1.5748   1.5979   1.6192
     1.6193   1.6363   1.6364   1.6628   1.6640   1.6732   1.6733   1.6860
     1.6866   1.7008   1.7009   1.7184   1.7187   1.7333   1.7420   1.7658
     1.7782   1.7807   1.7843   1.8020   1.8044   1.8049   1.8117   1.8201
     1.8206   1.8298   1.8299   1.8439   1.8481   1.8492   1.8495   1.8543
     1.8717   1.8770   1.9002   1.9167   1.9183   1.9259   1.9290   1.9298
     1.9366   1.9375   1.9377   1.9407   1.9458   1.9511   1.9524   1.9533
     2.0125   2.0135   2.0743   2.0750   2.0839   2.0874   2.0878   2.0923
     2.1157   2.1159   2.1308   2.1333   2.1397   2.1591   2.1722   2.1729
     2.1993   2.2007   2.2185   2.2420   2.2447   2.2516   2.2523   2.2560
     2.2568   2.2580   2.2632   2.2652   2.2724   2.2735   2.2986   2.3185
     2.3396   2.3421   2.3435   2.3473   2.3560   2.3582   2.3612   2.3857
     2.3913   2.3986   2.4100   2.4352   2.4374   2.4532   2.4597   2.4612
     2.4709   2.4735   2.5044   2.5129   2.5183   2.5188   2.5452   2.5457
     2.5673   2.5738   2.5744   2.5926   2.5936   2.6162   2.6166   2.6175
     2.6210   2.6237   2.6369   2.6371   2.6417   2.6479   2.6507   2.6681
     2.7057   2.7125   2.7127   2.7153   2.7632   2.7635   2.7735   2.7751
     2.8059   2.8187   2.8191   2.8248   2.8251   2.8398   2.8426   2.8693
[...]
     4.1414   4.1521   4.2464   4.2467   4.2597   4.5224   4.6327   4.6379
     4.6546   4.6547   4.7779   5.1005   5.1281   5.1290   5.5722   5.6127
     5.6316   5.6751   5.8649   5.8845   5.8862   6.0164   6.0222   6.1075
     6.1796   6.5523   6.6308   6.6326   6.8063   6.8669   6.9531   7.0089
     7.0096   7.3026   7.3902   7.4083   7.5617   7.7685   7.8344   7.9282
     8.4276   8.4306   8.4654   8.5341   8.7154   9.0454   9.0913   9.1239
     9.1985   9.2837   9.3260   9.4377   9.4464   9.6089   9.6453   9.6530
     9.7747   9.8264  10.0094  10.1146  10.1392  10.3228  10.3832  10.4647
    10.4937  10.5670  10.6461  10.7661  10.8010  11.0292  11.1318  11.1412
    11.2459  11.2813  11.4040  11.4357  11.4410  11.5849  11.6205  11.6660
    11.6801  11.7635  11.8077  11.8368  11.9750  12.0726  12.1083  12.1762
    12.2615  12.3321  12.3572  12.3881  12.4506  12.4674  12.5334  12.5870
    12.6831  12.7042  12.7909  12.9009  12.9402  12.9501  13.1391  13.2327
    13.2609  13.2823  13.3590  13.3850  13.4558  13.4814  13.5290  13.6138
    13.6457  13.6600

     the Fermi energy is     4.5648 ev

!    total energy              =  -21903.76849586 Ry
     Harris-Foulkes estimate   =  -21903.76849586 Ry
     estimated scf accuracy    <          4.1E-09 Ry

     The total energy is the sum of the following terms:

     one-electron contribution = -206219.03870991 Ry
     hartree contribution      =  103310.62652602 Ry
     xc contribution           =   -2143.16727110 Ry
     ewald contribution        =   83147.86352067 Ry
     smearing contrib. (-TS)   =      -0.05256155 Ry

     convergence has been achieved in  37 iterations

     General routines

     Parallel routines

      32h

   This run was terminated on:   3:45:10  16Nov2019

   JOB DONE.