     Program PWSCF v.6.3MaX starts on 14Nov2019 at 21: 9:34

     R & G space division:  proc/nbgrp/npool/nimage =      16
     Waiting for input...
     Reading input from standard input

     Current dimensions of program PWSCF are:
     Max number of different atomic species (ntypx) = 10
     Max number of k-points (npk) =  40000
     Max angular momentum in pseudopotentials (lmaxx) =  3
     Message from routine iosys:
     minimal I/O required, wf_collect reset to FALSE

     IMPORTANT: XC functional enforced from input :
     Exchange-correlation      = VDW-DF ( 1  4  4  0 1 0)
     Any further DFT definition will be discarded
     Please, verify this is what you really want

     bravais-lattice index     =            0
     lattice parameter (alat)  =      14.8058  a.u.
     unit-cell volume          =   10282.4791 (a.u.)^3
     number of atoms/cell      =           66
     number of atomic types    =            3
     number of electrons       =      1056.00
     number of Kohn-Sham states=          634
     kinetic-energy cutoff     =      50.0000  Ry
     charge density cutoff     =     600.0000  Ry
     convergence threshold     =      1.0E-08
     mixing beta               =       0.3000
     number of iterations used =            8  plain     mixing
     Exchange-correlation      = VDW-DF ( 1  4  4  0 1 0)

     celldm(1)=  14.805786  celldm(2)=   0.000000  celldm(3)=   0.000000
     celldm(4)=   0.000000  celldm(5)=   0.000000  celldm(6)=   0.000000

     crystal axes: (cart. coord. in units of alat)
               a(1) = (   1.000000   0.000000   0.000000 )
               a(2) = (   0.500000   0.866025   0.000000 )
               a(3) = (   0.000000   0.000000   3.658245 )

     reciprocal axes: (cart. coord. in units 2 pi/alat)
               b(1) = (  1.000000 -0.577350  0.000000 )
               b(2) = (  0.000000  1.154701  0.000000 )
               b(3) = (  0.000000  0.000000  0.273355 )

     PseudoPot. # 1 for Cu read from file:
     /deac/thonhauserGrp/chakrad/calculations/atomandmolecule-qe6.2.1-i2012-C6modif/all_pbe_UPF_v1.5/cu_pbe_v1.2.uspp.F.UPF
     MD5 check sum: 6e991ff952a84172a2a52a1c1e996048
     Pseudo is Ultrasoft + core correction, Zval = 19.0
     Generated by new atomic code, or converted to UPF format
     Using radial grid of  867 points,  6 beta functions with:
                l(1) =   0
                l(2) =   0
                l(3) =   1
                l(4) =   1
                l(5) =   2
                l(6) =   2
     Q(r) pseudized with  8 coefficients,  rinner =    1.150   1.150   1.150
                                                       1.150   1.150

     PseudoPot. # 2 for C  read from file:
     /deac/thonhauserGrp/chakrad/calculations/atomandmolecule-qe6.2.1-i2012-C6modif/all_pbe_UPF_v1.5/c_pbe_v1.2.uspp.F.UPF
     MD5 check sum: d1aef80898a10debaa0f26306b886e00
     Pseudo is Ultrasoft + core correction, Zval =  4.0
     Generated by new atomic code, or converted to UPF format
     Using radial grid of  721 points,  4 beta functions with:
                l(1) =   0
                l(2) =   0
                l(3) =   1
                l(4) =   1
     Q(r) pseudized with  8 coefficients,  rinner =    1.100   1.100   1.100

     PseudoPot. # 3 for H  read from file:
     /deac/thonhauserGrp/chakrad/calculations/atomandmolecule-qe6.2.1-i2012-C6modif/all_pbe_UPF_v1.5/h_pbe_v1.4.uspp.F.UPF
     MD5 check sum: 761ae9a214b05c3daf00ab9f6b793d6f
     Pseudo is Ultrasoft, Zval =  1.0
     Generated by new atomic code, or converted to UPF format
     Using radial grid of  615 points,  2 beta functions with:
                l(1) =   0
                l(2) =   0
     Q(r) pseudized with  8 coefficients,  rinner =    0.700

     vdW kernel table read from file vdW_kernel_table
     MD5 check sum: cc9485f6209b1096fbef62427c856dab

     atomic species   valence    mass     pseudopotential
        Cu            19.00     1.00000     Cu( 1.00)
        C              4.00     1.00000     C ( 1.00)
        H              1.00     1.00000     H ( 1.00)

     No symmetry found

   Cartesian axes

     site n.     atom                  positions (alat units)
         1           Cu  tau(   1) = (   0.1666667   0.0962250   0.2552686  )
         2           Cu  tau(   2) = (   0.5000000   0.0962250   0.2552686  )
         3           Cu  tau(   3) = (   0.8333333   0.0962250   0.2552686  )
         4           Cu  tau(   4) = (   0.3333333   0.3849002   0.2552686  )
         5           Cu  tau(   5) = (   0.6666667   0.3849002   0.2552686  )
         6           Cu  tau(   6) = (   1.0000000   0.3849002   0.2552686  )
         7           Cu  tau(   7) = (   0.5000000   0.6735753   0.2552686  )
         8           Cu  tau(   8) = (   0.8333333   0.6735753   0.2552686  )
         9           Cu  tau(   9) = (   1.1666667   0.6735753   0.2552686  )
        10           Cu  tau(  10) = (   0.0000000   0.1924501   0.5274341  )
        11           Cu  tau(  11) = (   0.3333333   0.1924501   0.5274341  )
        12           Cu  tau(  12) = (   0.6666667   0.1924501   0.5274341  )
        13           Cu  tau(  13) = (   0.1666667   0.4811252   0.5274341  )
        14           Cu  tau(  14) = (   0.5000000   0.4811252   0.5274341  )
        15           Cu  tau(  15) = (   0.8333333   0.4811252   0.5274341  )
        16           Cu  tau(  16) = (   0.3333333   0.7698004   0.5274341  )
        17           Cu  tau(  17) = (   0.6666667   0.7698004   0.5274341  )
        18           Cu  tau(  18) = (   1.0000000   0.7698004   0.5274341  )
        19           Cu  tau(  19) = (   0.0000000   0.0000000   0.7995997  )
        20           Cu  tau(  20) = (   0.3333333   0.0000000   0.7995997  )
        21           Cu  tau(  21) = (   0.6666667   0.0000000   0.7995997  )
        22           Cu  tau(  22) = (   0.1666667   0.2886751   0.7995997  )
        23           Cu  tau(  23) = (   0.5000000   0.2886751   0.7995997  )
        24           Cu  tau(  24) = (   0.8333333   0.2886751   0.7995997  )
        25           Cu  tau(  25) = (   0.3333333   0.5773503   0.7995997  )
        26           Cu  tau(  26) = (   0.6666667   0.5773503   0.7995997  )
        27           Cu  tau(  27) = (   1.0000000   0.5773503   0.7995997  )
        28           Cu  tau(  28) = (   0.1666659   0.0962246   1.0691130  )
        29           Cu  tau(  29) = (   0.5000000   0.0962241   1.0691104  )
        30           Cu  tau(  30) = (   0.8333341   0.0962246   1.0691130  )
        31           Cu  tau(  31) = (   0.3333325   0.3849006   1.0691104  )
        32           Cu  tau(  32) = (   0.6666675   0.3849006   1.0691104  )
        33           Cu  tau(  33) = (   1.0000000   0.3849003   1.0691143  )
        34           Cu  tau(  34) = (   0.5000000   0.6735762   1.0691130  )
        35           Cu  tau(  35) = (   0.8333334   0.6735753   1.0691143  )
        36           Cu  tau(  36) = (   1.1666666   0.6735753   1.0691143  )
        37           Cu  tau(  37) = (   0.0000000   0.1924486   1.3387540  )
        38           Cu  tau(  38) = (   0.3333330   0.1924499   1.3387465  )
        39           Cu  tau(  39) = (   0.6666670   0.1924499   1.3387465  )
        40           Cu  tau(  40) = (   0.1666676   0.4811247   1.3387504  )
        41           Cu  tau(  41) = (   0.5000000   0.4811256   1.3387465  )
        42           Cu  tau(  42) = (   0.8333324   0.4811247   1.3387504  )
        43           Cu  tau(  43) = (   0.3333346   0.7698011   1.3387540  )
        44           Cu  tau(  44) = (   0.6666654   0.7698011   1.3387540  )
        45           Cu  tau(  45) = (   1.0000000   0.7698014   1.3387504  )
        46           Cu  tau(  46) = (   0.0000000   0.0000000   1.6083750  )
        47           Cu  tau(  47) = (   0.3333333   0.0000005   1.6083624  )
        48           Cu  tau(  48) = (   0.6666667   0.0000005   1.6083624  )
        49           Cu  tau(  49) = (   0.1666671   0.2886748   1.6083624  )
        50           Cu  tau(  50) = (   0.5000000   0.2886751   1.6083553  )
        51           Cu  tau(  51) = (   0.8333329   0.2886748   1.6083624  )
        52           Cu  tau(  52) = (   0.3333338   0.5773500   1.6083624  )
        53           Cu  tau(  53) = (   0.6666662   0.5773500   1.6083624  )
        54           Cu  tau(  54) = (   1.0000000   0.5773503   1.6083570  )
        55           C   tau(  55) = (   0.6567407   0.3959883   2.1124734  )
        56           C   tau(  56) = (   0.5046394   0.3028152   2.1124733  )
        57           C   tau(  57) = (   0.3478975   0.3879497   2.1124734  )
        58           C   tau(  58) = (   0.3432593   0.5662630   2.1124734  )
        59           C   tau(  59) = (   0.4953606   0.6594361   2.1124733  )
        60           C   tau(  60) = (   0.6521025   0.5743016   2.1124734  )
        61           H   tau(  61) = (   0.7789959   0.3295665   2.1125516  )
        62           H   tau(  62) = (   0.5082587   0.1637263   2.1125517  )
        63           H   tau(  63) = (   0.2292624   0.3152577   2.1125516  )
        64           H   tau(  64) = (   0.2210041   0.6326847   2.1125516  )
        65           H   tau(  65) = (   0.4917413   0.7985249   2.1125517  )
        66           H   tau(  66) = (   0.7707376   0.6469936   2.1125516  )

     number of k points=    10  gaussian smearing, width (Ry)=  0.0200
                       cart. coord. in units 2pi/alat
        k(    1) = (   0.0000000   0.0000000   0.0000000), wk =   0.1250000
        k(    2) = (   0.0000000   0.2886751   0.0000000), wk =   0.2500000
        k(    3) = (   0.0000000  -0.5773503   0.0000000), wk =   0.1250000
        k(    4) = (   0.2500000  -0.7216878   0.0000000), wk =   0.2500000
        k(    5) = (  -0.2500000   0.1443376   0.0000000), wk =   0.2500000
        k(    6) = (   0.2500000   0.1443376   0.0000000), wk =   0.2500000
        k(    7) = (   0.5000000  -0.2886751   0.0000000), wk =   0.1250000
        k(    8) = (  -0.5000000  -0.2886751   0.0000000), wk =   0.1250000
        k(    9) = (  -0.2500000  -0.7216878   0.0000000), wk =   0.2500000
        k(   10) = (  -0.5000000  -0.5773503   0.0000000), wk =   0.2500000

     Initial potential from superposition of free atoms
     Check: negative starting charge=   -0.000690

     starting charge 1001.99960, renormalised to 1056.00000

     negative rho (up, down):  7.276E-04 0.000E+00

     %%%%%%%%%%%%%%%%%%%%%%%%%%%%%%%%%%%%%%%%%%%%%%%%%%%%%%%%%%%%%%%%%%%%%%%%
     %                                                                      %
     % You are using vdW-DF, which was implemented by the Thonhauser group. %
     % Please cite the following two papers that made this development      %
     % possible and the two reviews that describe the various versions:     %
     %                                                                      %
     %   T. Thonhauser et al., PRL 115, 136402 (2015).                      %
     %   T. Thonhauser et al., PRB 76, 125112 (2007).                       %
     %   K. Berland et al., Rep. Prog. Phys. 78, 066501 (2015).             %
     %   D.C. Langreth et al., J. Phys.: Condens. Matter 21, 084203 (2009). %
     %                                                                      %
     %                                                                      %
     % If you are calculating the stress with vdW-DF, please also cite:     %
     %                                                                      %
     %   R. Sabatini et al., J. Phys.: Condens. Matter 24, 424209 (2012).   %
     %                                                                      %
     %%%%%%%%%%%%%%%%%%%%%%%%%%%%%%%%%%%%%%%%%%%%%%%%%%%%%%%%%%%%%%%%%%%%%%%%

     Starting wfcs are  732 randomized atomic wfcs

     Self-consistent Calculation

     iteration #  1     ecut=    50.00 Ry     beta= 0.30
     Davidson diagonalization with overlap
     ethr =  1.00E-02,  avg # of iterations =  5.5

[...]

     total energy              =  -19167.49514748 Ry
     Harris-Foulkes estimate   =  -22002.79434029 Ry
     estimated scf accuracy    <    5605.93563497 Ry

     iteration #  2     ecut=    50.00 Ry     beta= 0.30
     Davidson diagonalization with overlap
     c_bands:  1 eigenvalues not converged
     ethr =  1.00E-02,  avg # of iterations = 19.1

[...]

     total energy              =  -21903.76732527 Ry
     Harris-Foulkes estimate   =  -21903.76732529 Ry
     estimated scf accuracy    <       0.00000001 Ry

     iteration # 34     ecut=    50.00 Ry     beta= 0.30
     Davidson diagonalization with overlap
     ethr =  1.06E-12,  avg # of iterations =  2.0

     negative rho (up, down):  2.259E-03 0.000E+00

     End of self-consistent calculation

          k = 0.0000 0.0000 0.0000 ( 61453 PWs)   bands (ev):

  -107.9002-107.8951-107.8939-107.8937-107.8937-107.8935-107.8935-107.8930
  -107.8913-107.8902-107.8902-107.8901-107.8901-107.8896-107.8896-107.8893
  -107.8888-107.8886-107.8868-107.8842-107.8842-107.8842-107.8837-107.8837
  -107.8836-107.8814-107.8814-107.8795-107.8753-107.8749-107.8749-107.8748
  -107.8748-107.8744-107.8725-107.8724-107.6568-107.6526-107.6526-107.6526
  -107.6512-107.6512-107.6489-107.6468-107.6468-107.6410-107.6359-107.6359
  -107.6359-107.6358-107.6358-107.6358-107.6333-107.6333 -65.3546 -65.3414
   -65.3411 -65.3411 -65.3407 -65.3407 -65.3404 -65.3334 -65.3334 -65.3334
   -65.3331 -65.3331 -65.3328 -65.3328 -65.3326 -65.3293 -65.3293 -65.3292
   -65.3290 -65.3271 -65.3213 -65.3213 -65.3212 -65.3208 -65.3207 -65.3206
   -65.3187 -65.3187 -65.3187 -65.3185 -65.3184 -65.3182 -65.3180 -65.3180
   -65.3154 -65.3154 -65.3150 -65.3149 -65.3093 -65.3093 -65.3092 -65.3089
   -65.3089 -65.3089 -65.3080 -65.3080 -65.3045 -65.3045 -65.3023 -65.3013
   -65.3012 -65.3010 -65.3010 -65.3009 -65.3009 -65.3007 -65.2996 -65.2941
   -65.2941 -65.2930 -65.2930 -65.2929 -65.2927 -65.2927 -65.2927 -65.2908
   -65.2908 -65.2908 -65.2903 -65.2900 -65.2900 -65.2894 -65.2894 -65.2868
   -65.2868 -65.2830 -65.2827 -65.2827 -65.2826 -65.2825 -65.2825 -65.2825
   -65.2825 -65.2822 -65.2820 -65.2818 -65.2818 -65.2792 -65.2764 -65.2764
   -65.2760 -65.2759 -65.2759 -65.2758 -65.2757 -65.2757 -65.2700 -65.2700
   -65.2682 -65.2682 -65.2681 -65.2680 -65.2679 -65.2679 -65.2639 -65.2639
   -65.2573 -65.2573 -65.1099 -65.1095 -65.1095 -65.1085 -65.1085 -65.1084
   -65.1058 -65.1057 -65.1057 -65.1045 -65.0952 -65.0952 -65.0952 -65.0951
   -65.0951 -65.0951 -65.0926 -65.0926 -65.0922 -65.0921 -65.0747 -65.0739
   -65.0739 -65.0727 -65.0727 -65.0721 -65.0610 -65.0610 -65.0598 -65.0598
   -65.0598 -65.0598 -65.0598 -65.0597 -65.0476 -65.0476 -65.0318 -65.0280
   -65.0279 -65.0279 -65.0266 -65.0266 -65.0235 -65.0216 -65.0215 -65.0131
   -65.0083 -65.0083 -65.0083 -65.0083 -65.0082 -65.0082 -65.0059 -65.0059
   -12.4750  -9.7351  -9.7348  -6.1495  -6.1490  -4.2278  -4.1646  -3.5436
    -2.6389  -2.5914  -2.2322  -1.5887  -1.5886  -1.4606  -1.1994  -1.1992
    -1.1992  -1.1991  -1.1991  -1.1990  -0.7948  -0.7943  -0.7943  -0.7943
    -0.7942  -0.7942  -0.6032  -0.3433  -0.2961  -0.2937  -0.2936  -0.2936
    -0.2935  -0.2935  -0.2662   0.1570   0.1570   0.1571   0.1572   0.1572
     0.1587   0.3448   0.3451   0.5070   0.5070   0.5072   0.5075   0.5075
     0.5081   0.6318   0.6318   0.6319   0.6319   0.6319   0.6320   0.6815
     0.6815   0.6816   0.6817   0.6817   0.6819   0.7093   0.7093   0.7231
     0.7231   0.7349   0.7350   0.8306   0.8307   0.8379   0.8379   0.8606
     0.8606   0.8606   0.8607   0.8607   0.8610   0.8682   0.8682   0.8692
     0.8692   0.9215   0.9215   0.9609   0.9609   1.0703   1.0703   1.0741
     1.0741   1.0743   1.0743   1.0743   1.0748   1.1056   1.1056   1.3100
     1.3100   1.3103   1.3107   1.3107   1.3114   1.4387   1.4387   1.4467
     1.4467   1.4622   1.4622   1.4625   1.4625   1.4625   1.4629   1.5004
     1.5074   1.5074   1.5205   1.5755   1.5755   1.5758   1.5759   1.5759
     1.5762   1.5889   1.5889   1.6135   1.6135   1.6456   1.6501   1.6501
     1.6619   1.6619   1.6625   1.6625   1.6625   1.6627   1.7000   1.7000
     1.7136   1.7136   1.7137   1.7137   1.7138   1.7139   1.7325   1.7326
     1.7326   1.7328   1.7328   1.7328   1.7387   1.7387   1.7565   1.8613
     1.8613   1.8631   1.8632   1.8647   1.8647   1.8650   1.8657   1.8772
     1.8772   1.8922   1.8924   1.9088   1.9088   1.9090   1.9091   1.9334
     1.9334   1.9349   1.9350   1.9350   1.9353   1.9353   1.9353   2.1191
     2.1191   2.1301   2.1304   2.1304   2.1320   2.1939   2.1941   2.1941
     2.1942   2.1942   2.1944   2.2443   2.2443   2.2622   2.2622   2.2623
     2.2637   2.2687   2.2687   2.2730   2.2730   2.2948   2.2948   2.3317
     2.3610   2.3610   2.3727   2.3727   2.3908   2.3908   2.4003   2.4006
     2.4006   2.4016   2.4244   2.4245   2.4245   2.4248   2.4248   2.4248
     2.4276   2.4276   2.4281   2.4281   2.4464   2.4465   2.4991   2.4991
     2.5631   2.5632   2.5632   2.5633   2.5633   2.5633   2.6213   2.6217
     2.6217   2.6221   2.6222   2.6222   2.6223   2.6223   2.6223   2.6228
     2.6273   2.6274   2.6878   2.6878   2.6913   2.6913   2.6914   2.6916
     2.6917   2.6917   2.7027   2.7027   2.7027   2.7030   2.7030   2.7030
     2.7274   2.7275   2.7275   2.7277   2.7277   2.7277   2.7617   2.7617
[...]
     2.9677   2.9679   2.9679   2.9680   3.7793   3.9023   3.9025   3.9025
     3.9103   3.9167   3.9167   4.3617   5.3364   5.3364   5.3380   5.3492
     5.3586   5.3586   7.0660   7.0661   7.0666   7.1168   7.1636   7.1636
     7.2519   7.5301   7.5303   7.7600   7.7600   7.7604   7.7604   7.7756
     7.7756   8.1546   8.1546   8.1550   8.1730   8.1730   8.5218   8.5754
     8.5758   8.7734   8.8330   8.8333   8.8504   8.8504   8.9246   8.9246
     8.9683   9.1646   9.4469   9.4469   9.4530   9.4530   9.4938   9.7848
     9.7849   9.8317   9.8318   9.8821  10.4895  10.5531  10.6176  10.6176
    10.6241  10.6241  10.7541  10.7541  10.8045  10.8046  10.8100  11.0269
    11.1983  11.1983  11.2588  11.2588  11.2642  11.2842  11.2842  11.3408
    11.3877  11.7124  11.7124  11.7718  11.7718  11.7718  11.8259  11.8259
    11.8368  11.8368  11.8371  11.9368  11.9368  11.9941  12.0911  12.1943
    12.1943  12.2277  12.2871  12.2871  12.3339  12.4569  12.4569  12.6687
    12.9240  12.9299  12.9300  12.9606  12.9676  12.9727  12.9727  13.0187
    13.0592  13.0717

[...]

          k =-0.2500 0.1443 0.0000 ( 61417 PWs)   bands (ev):

[...]

          k = 0.5000-0.2887 0.0000 ( 61408 PWs)   bands (ev):

[...]

          k =-0.5000-0.5774 0.0000 ( 61343 PWs)   bands (ev):

  -107.8986-107.8969-107.8964-107.8939-107.8928-107.8927-107.8924-107.8918
  -107.8914-107.8910-107.8909-107.8905-107.8901-107.8895-107.8892-107.8888
  -107.8886-107.8876-107.8868-107.8863-107.8860-107.8835-107.8832-107.8825
  -107.8824-107.8819-107.8817-107.8784-107.8771-107.8768-107.8745-107.8741
  -107.8736-107.8733-107.8731-107.8727-107.6558-107.6545-107.6533-107.6518
  -107.6510-107.6508-107.6487-107.6469-107.6467-107.6397-107.6382-107.6382
  -107.6353-107.6352-107.6342-107.6342-107.6341-107.6338 -65.3505 -65.3459
   -65.3456 -65.3447 -65.3444 -65.3434 -65.3432 -65.3418 -65.3401 -65.3385
   -65.3383 -65.3372 -65.3344 -65.3325 -65.3321 -65.3321 -65.3319 -65.3293
   -65.3262 -65.3258 -65.3257 -65.3254 -65.3252 -65.3237 -65.3236 -65.3226
   -65.3218 -65.3216 -65.3189 -65.3186 -65.3135 -65.3133 -65.3129 -65.3122
   -65.3097 -65.3095 -65.3087 -65.3085 -65.3083 -65.3053 -65.3048 -65.3046
   -65.3035 -65.3029 -65.3026 -65.3025 -65.3015 -65.2986 -65.2984 -65.2983
   -65.2981 -65.2981 -65.2979 -65.2966 -65.2964 -65.2962 -65.2959 -65.2944
   -65.2942 -65.2929 -65.2927 -65.2925 -65.2923 -65.2919 -65.2902 -65.2890
   -65.2888 -65.2888 -65.2886 -65.2881 -65.2878 -65.2872 -65.2871 -65.2869
   -65.2867 -65.2855 -65.2853 -65.2845 -65.2840 -65.2839 -65.2835 -65.2820
   -65.2818 -65.2810 -65.2809 -65.2809 -65.2808 -65.2807 -65.2806 -65.2804
   -65.2786 -65.2784 -65.2779 -65.2760 -65.2759 -65.2751 -65.2749 -65.2749
   -65.2740 -65.2739 -65.2717 -65.2707 -65.2707 -65.2698 -65.2661 -65.2642
   -65.2642 -65.2604 -65.1226 -65.1218 -65.1193 -65.1127 -65.1093 -65.1086
   -65.1086 -65.1081 -65.1058 -65.0992 -65.0952 -65.0952 -65.0895 -65.0877
   -65.0864 -65.0860 -65.0814 -65.0803 -65.0798 -65.0790 -65.0757 -65.0737
   -65.0731 -65.0728 -65.0728 -65.0686 -65.0683 -65.0671 -65.0670 -65.0662
   -65.0662 -65.0643 -65.0596 -65.0550 -65.0550 -65.0510 -65.0308 -65.0297
   -65.0285 -65.0272 -65.0264 -65.0262 -65.0235 -65.0216 -65.0215 -65.0119
   -65.0105 -65.0104 -65.0077 -65.0077 -65.0067 -65.0067 -65.0066 -65.0063
   -12.4733  -9.7406  -9.7380  -6.1521  -6.1437  -4.1747  -3.5312  -2.9250
    -2.7250  -2.7249  -2.5834  -2.2393  -2.1504  -2.1503  -2.0018  -1.6655
    -1.6245  -1.2917  -1.2907  -0.9185  -0.7143  -0.7142  -0.3722  -0.3634
    -0.3604  -0.3188  -0.2768  -0.1234  -0.1234  -0.1140   0.0519   0.0523
     0.0712   0.0713   0.0875   0.1373   0.1496   0.1497   0.1667   0.2653
     0.2690   0.2724   0.2724   0.2842   0.3251   0.3471   0.3492   0.4106
     0.4108   0.4226   0.4334   0.4607   0.4608   0.4638   0.4825   0.4830
     0.5513   0.5515   0.5758   0.5780   0.6083   0.6083   0.6329   0.6423
     0.6424   0.7115   0.7115   0.7376   0.7603   0.7703   0.7705   0.8460
     0.8470   0.8973   0.9167   0.9168   0.9466   0.9467   1.0035   1.0127
     1.0129   1.0281   1.0281   1.0432   1.0810   1.1086   1.1087   1.1507
     1.1510   1.1784   1.1841   1.1843   1.1855   1.2016   1.2017   1.2617
     1.2620   1.2646   1.2646   1.2673   1.2803   1.2968   1.2978   1.3113
     1.3116   1.3392   1.3399   1.3629   1.3653   1.3657   1.3847   1.4084
     1.4494   1.4576   1.4578   1.4583   1.4589   1.4881   1.5070   1.5113
     1.5117   1.5485   1.5485   1.5498   1.5524   1.5584   1.5814   1.6029
     1.6030   1.6203   1.6204   1.6473   1.6479   1.6568   1.6569   1.6707
     1.6711   1.6847   1.6849   1.7025   1.7027   1.7170   1.7261   1.7499
     1.7648   1.7661   1.7678   1.7860   1.7886   1.7890   1.7956   1.8043
     1.8046   1.8132   1.8133   1.8274   1.8330   1.8334   1.8335   1.8416
     1.8555   1.8605   1.8841   1.9018   1.9027   1.9112   1.9133   1.9138
     1.9201   1.9213   1.9215   1.9242   1.9295   1.9354   1.9369   1.9377
     1.9971   1.9978   2.0587   2.0592   2.0682   2.0718   2.0719   2.0770
     2.0997   2.0999   2.1193   2.1214   2.1236   2.1426   2.1582   2.1592
     2.1894   2.1905   2.2023   2.2320   2.2322   2.2356   2.2360   2.2399
     2.2419   2.2421   2.2485   2.2538   2.2612   2.2615   2.2976   2.3185
     2.3240   2.3269   2.3284   2.3324   2.3428   2.3470   2.3566   2.3696
     2.3793   2.3885   2.3944   2.4230   2.4268   2.4372   2.4445   2.4486
     2.4549   2.4578   2.4884   2.4978   2.5026   2.5031   2.5297   2.5299
     2.5512   2.5579   2.5585   2.5767   2.5774   2.6003   2.6006   2.6013
     2.6051   2.6074   2.6210   2.6213   2.6258   2.6315   2.6339   2.6509
     2.6894   2.6967   2.6969   2.6988   2.7472   2.7475   2.7569   2.7580
     2.7896   2.8026   2.8029   2.8085   2.8087   2.8241   2.8266   2.8531
[...]
     4.1247   4.1333   4.2303   4.2304   4.2432   4.5063   4.6178   4.6215
     4.6386   4.6387   4.7574   5.0850   5.1126   5.1134   5.5558   5.5973
     5.6137   5.6514   5.8488   5.8698   5.8713   6.0021   6.0065   6.0930
     6.1638   6.5374   6.6167   6.6182   6.7931   6.8442   6.9395   6.9937
     6.9943   7.2922   7.4176   7.4471   7.5565   7.7653   7.8161   7.9206
     8.4122   8.4143   8.4602   8.5180   8.7064   9.0522   9.0788   9.1170
     9.1893   9.2704   9.3309   9.4255   9.4332   9.5890   9.6226   9.6497
     9.7666   9.8056  10.0075  10.1129  10.1282  10.3086  10.3639  10.4699
    10.4886  10.5554  10.6279  10.7530  10.7845  11.0150  11.1054  11.1480
    11.2455  11.2961  11.3842  11.4218  11.4270  11.5801  11.6180  11.6519
    11.6686  11.7453  11.7894  11.8330  11.9535  12.0598  12.0736  12.1880
    12.2578  12.3172  12.3366  12.3691  12.4341  12.4440  12.5098  12.5728
    12.6674  12.6948  12.7794  12.9016  12.9295  12.9525  13.1327  13.2168
    13.2498  13.2874  13.3515  13.3705  13.4453  13.4648  13.5306  13.6017
    13.6382  13.6552

     the Fermi energy is     4.5483 ev

!    total energy              =  -21903.76732526 Ry
     Harris-Foulkes estimate   =  -21903.76732527 Ry
     estimated scf accuracy    <          3.0E-09 Ry

     The total energy is the sum of the following terms:

     one-electron contribution = -205801.59712916 Ry
     hartree contribution      =  103101.34711324 Ry
     xc contribution           =   -2143.15873761 Ry
     ewald contribution        =   82939.69397804 Ry
     smearing contrib. (-TS)   =      -0.05254977 Ry

     convergence has been achieved in  34 iterations

     General routines

     Parallel routines

       2h

   This run was terminated on:   3:12:24  15Nov2019

   JOB DONE.