     Program PWSCF v.6.3MaX starts on 21Nov2019 at  0:31:36

     R & G space division:  proc/nbgrp/npool/nimage =      16
     Waiting for input...
     Reading input from standard input

     Current dimensions of program PWSCF are:
     Max number of different atomic species (ntypx) = 10
     Max number of k-points (npk) =  40000
     Max angular momentum in pseudopotentials (lmaxx) =  3
     Message from routine iosys:
     minimal I/O required, wf_collect reset to FALSE

     IMPORTANT: XC functional enforced from input :
     Exchange-correlation      = VDW-DF ( 1  4  4  0 1 0)
     Any further DFT definition will be discarded
     Please, verify this is what you really want

     bravais-lattice index     =            0
     lattice parameter (alat)  =      14.8058  a.u.
     unit-cell volume          =   10282.4791 (a.u.)^3
     number of atoms/cell      =           66
     number of atomic types    =            3
     number of electrons       =      1056.00
     number of Kohn-Sham states=          634
     kinetic-energy cutoff     =      50.0000  Ry
     charge density cutoff     =     600.0000  Ry
     convergence threshold     =      1.0E-08
     mixing beta               =       0.3000
     number of iterations used =            8  plain     mixing
     Exchange-correlation      = VDW-DF ( 1  4  4  0 1 0)

     celldm(1)=  14.805786  celldm(2)=   0.000000  celldm(3)=   0.000000
     celldm(4)=   0.000000  celldm(5)=   0.000000  celldm(6)=   0.000000

     crystal axes: (cart. coord. in units of alat)
               a(1) = (   1.000000   0.000000   0.000000 )
               a(2) = (   0.500000   0.866025   0.000000 )
               a(3) = (   0.000000   0.000000   3.658245 )

     reciprocal axes: (cart. coord. in units 2 pi/alat)
               b(1) = (  1.000000 -0.577350  0.000000 )
               b(2) = (  0.000000  1.154701  0.000000 )
               b(3) = (  0.000000  0.000000  0.273355 )

     PseudoPot. # 1 for Cu read from file:
     /deac/thonhauserGrp/chakrad/calculations/atomandmolecule-qe6.2.1-i2012-C6modif/all_pbe_UPF_v1.5/cu_pbe_v1.2.uspp.F.UPF
     MD5 check sum: 6e991ff952a84172a2a52a1c1e996048
     Pseudo is Ultrasoft + core correction, Zval = 19.0
     Generated by new atomic code, or converted to UPF format
     Using radial grid of  867 points,  6 beta functions with:
                l(1) =   0
                l(2) =   0
                l(3) =   1
                l(4) =   1
                l(5) =   2
                l(6) =   2
     Q(r) pseudized with  8 coefficients,  rinner =    1.150   1.150   1.150
                                                       1.150   1.150

     PseudoPot. # 2 for C  read from file:
     /deac/thonhauserGrp/chakrad/calculations/atomandmolecule-qe6.2.1-i2012-C6modif/all_pbe_UPF_v1.5/c_pbe_v1.2.uspp.F.UPF
     MD5 check sum: d1aef80898a10debaa0f26306b886e00
     Pseudo is Ultrasoft + core correction, Zval =  4.0
     Generated by new atomic code, or converted to UPF format
     Using radial grid of  721 points,  4 beta functions with:
                l(1) =   0
                l(2) =   0
                l(3) =   1
                l(4) =   1
     Q(r) pseudized with  8 coefficients,  rinner =    1.100   1.100   1.100

     PseudoPot. # 3 for H  read from file:
     /deac/thonhauserGrp/chakrad/calculations/atomandmolecule-qe6.2.1-i2012-C6modif/all_pbe_UPF_v1.5/h_pbe_v1.4.uspp.F.UPF
     MD5 check sum: 761ae9a214b05c3daf00ab9f6b793d6f
     Pseudo is Ultrasoft, Zval =  1.0
     Generated by new atomic code, or converted to UPF format
     Using radial grid of  615 points,  2 beta functions with:
                l(1) =   0
                l(2) =   0
     Q(r) pseudized with  8 coefficients,  rinner =    0.700

     vdW kernel table read from file vdW_kernel_table
     MD5 check sum: cc9485f6209b1096fbef62427c856dab

     atomic species   valence    mass     pseudopotential
        Cu            19.00     1.00000     Cu( 1.00)
        C              4.00     1.00000     C ( 1.00)
        H              1.00     1.00000     H ( 1.00)

     No symmetry found

   Cartesian axes

     site n.     atom                  positions (alat units)
         1           Cu  tau(   1) = (   0.1666667   0.0962250   0.2552686  )
         2           Cu  tau(   2) = (   0.5000000   0.0962250   0.2552686  )
         3           Cu  tau(   3) = (   0.8333333   0.0962250   0.2552686  )
         4           Cu  tau(   4) = (   0.3333333   0.3849002   0.2552686  )
         5           Cu  tau(   5) = (   0.6666667   0.3849002   0.2552686  )
         6           Cu  tau(   6) = (   1.0000000   0.3849002   0.2552686  )
         7           Cu  tau(   7) = (   0.5000000   0.6735753   0.2552686  )
         8           Cu  tau(   8) = (   0.8333333   0.6735753   0.2552686  )
         9           Cu  tau(   9) = (   1.1666667   0.6735753   0.2552686  )
        10           Cu  tau(  10) = (   0.0000000   0.1924501   0.5274341  )
        11           Cu  tau(  11) = (   0.3333333   0.1924501   0.5274341  )
        12           Cu  tau(  12) = (   0.6666667   0.1924501   0.5274341  )
        13           Cu  tau(  13) = (   0.1666667   0.4811252   0.5274341  )
        14           Cu  tau(  14) = (   0.5000000   0.4811252   0.5274341  )
        15           Cu  tau(  15) = (   0.8333333   0.4811252   0.5274341  )
        16           Cu  tau(  16) = (   0.3333333   0.7698004   0.5274341  )
        17           Cu  tau(  17) = (   0.6666667   0.7698004   0.5274341  )
        18           Cu  tau(  18) = (   1.0000000   0.7698004   0.5274341  )
        19           Cu  tau(  19) = (   0.0000000   0.0000000   0.7995997  )
        20           Cu  tau(  20) = (   0.3333333   0.0000000   0.7995997  )
        21           Cu  tau(  21) = (   0.6666667   0.0000000   0.7995997  )
        22           Cu  tau(  22) = (   0.1666667   0.2886751   0.7995997  )
        23           Cu  tau(  23) = (   0.5000000   0.2886751   0.7995997  )
        24           Cu  tau(  24) = (   0.8333333   0.2886751   0.7995997  )
        25           Cu  tau(  25) = (   0.3333333   0.5773503   0.7995997  )
        26           Cu  tau(  26) = (   0.6666667   0.5773503   0.7995997  )
        27           Cu  tau(  27) = (   1.0000000   0.5773503   0.7995997  )
        28           Cu  tau(  28) = (   0.1666659   0.0962246   1.0691130  )
        29           Cu  tau(  29) = (   0.5000000   0.0962241   1.0691104  )
        30           Cu  tau(  30) = (   0.8333341   0.0962246   1.0691130  )
        31           Cu  tau(  31) = (   0.3333325   0.3849006   1.0691104  )
        32           Cu  tau(  32) = (   0.6666675   0.3849006   1.0691104  )
        33           Cu  tau(  33) = (   1.0000000   0.3849003   1.0691143  )
        34           Cu  tau(  34) = (   0.5000000   0.6735762   1.0691130  )
        35           Cu  tau(  35) = (   0.8333334   0.6735753   1.0691143  )
        36           Cu  tau(  36) = (   1.1666666   0.6735753   1.0691143  )
        37           Cu  tau(  37) = (   0.0000000   0.1924486   1.3387540  )
        38           Cu  tau(  38) = (   0.3333330   0.1924499   1.3387465  )
        39           Cu  tau(  39) = (   0.6666670   0.1924499   1.3387465  )
        40           Cu  tau(  40) = (   0.1666676   0.4811247   1.3387504  )
        41           Cu  tau(  41) = (   0.5000000   0.4811256   1.3387465  )
        42           Cu  tau(  42) = (   0.8333324   0.4811247   1.3387504  )
        43           Cu  tau(  43) = (   0.3333346   0.7698011   1.3387540  )
        44           Cu  tau(  44) = (   0.6666654   0.7698011   1.3387540  )
        45           Cu  tau(  45) = (   1.0000000   0.7698014   1.3387504  )
        46           Cu  tau(  46) = (   0.0000000   0.0000000   1.6083750  )
        47           Cu  tau(  47) = (   0.3333333   0.0000005   1.6083624  )
        48           Cu  tau(  48) = (   0.6666667   0.0000005   1.6083624  )
        49           Cu  tau(  49) = (   0.1666671   0.2886748   1.6083624  )
        50           Cu  tau(  50) = (   0.5000000   0.2886751   1.6083553  )
        51           Cu  tau(  51) = (   0.8333329   0.2886748   1.6083624  )
        52           Cu  tau(  52) = (   0.3333338   0.5773500   1.6083624  )
        53           Cu  tau(  53) = (   0.6666662   0.5773500   1.6083624  )
        54           Cu  tau(  54) = (   1.0000000   0.5773503   1.6083570  )
        55           C   tau(  55) = (   0.6567407   0.3959883   2.0358928  )
        56           C   tau(  56) = (   0.5046394   0.3028152   2.0358928  )
        57           C   tau(  57) = (   0.3478975   0.3879497   2.0358928  )
        58           C   tau(  58) = (   0.3432593   0.5662630   2.0358928  )
        59           C   tau(  59) = (   0.4953606   0.6594361   2.0358928  )
        60           C   tau(  60) = (   0.6521025   0.5743016   2.0358928  )
        61           H   tau(  61) = (   0.7789959   0.3295665   2.0359710  )
        62           H   tau(  62) = (   0.5082587   0.1637263   2.0359711  )
        63           H   tau(  63) = (   0.2292624   0.3152577   2.0359710  )
        64           H   tau(  64) = (   0.2210041   0.6326847   2.0359710  )
        65           H   tau(  65) = (   0.4917413   0.7985249   2.0359711  )
        66           H   tau(  66) = (   0.7707376   0.6469936   2.0359710  )

     number of k points=    10  gaussian smearing, width (Ry)=  0.0200
                       cart. coord. in units 2pi/alat
        k(    1) = (   0.0000000   0.0000000   0.0000000), wk =   0.1250000
        k(    2) = (   0.0000000   0.2886751   0.0000000), wk =   0.2500000
        k(    3) = (   0.0000000  -0.5773503   0.0000000), wk =   0.1250000
        k(    4) = (   0.2500000  -0.7216878   0.0000000), wk =   0.2500000
        k(    5) = (  -0.2500000   0.1443376   0.0000000), wk =   0.2500000
        k(    6) = (   0.2500000   0.1443376   0.0000000), wk =   0.2500000
        k(    7) = (   0.5000000  -0.2886751   0.0000000), wk =   0.1250000
        k(    8) = (  -0.5000000  -0.2886751   0.0000000), wk =   0.1250000
        k(    9) = (  -0.2500000  -0.7216878   0.0000000), wk =   0.2500000
        k(   10) = (  -0.5000000  -0.5773503   0.0000000), wk =   0.2500000

     Initial potential from superposition of free atoms
     Check: negative starting charge=   -0.000758

     starting charge 1001.99960, renormalised to 1056.00000

     negative rho (up, down):  7.993E-04 0.000E+00

     %%%%%%%%%%%%%%%%%%%%%%%%%%%%%%%%%%%%%%%%%%%%%%%%%%%%%%%%%%%%%%%%%%%%%%%%
     %                                                                      %
     % You are using vdW-DF, which was implemented by the Thonhauser group. %
     % Please cite the following two papers that made this development      %
     % possible and the two reviews that describe the various versions:     %
     %                                                                      %
     %   T. Thonhauser et al., PRL 115, 136402 (2015).                      %
     %   T. Thonhauser et al., PRB 76, 125112 (2007).                       %
     %   K. Berland et al., Rep. Prog. Phys. 78, 066501 (2015).             %
     %   D.C. Langreth et al., J. Phys.: Condens. Matter 21, 084203 (2009). %
     %                                                                      %
     %                                                                      %
     % If you are calculating the stress with vdW-DF, please also cite:     %
     %                                                                      %
     %   R. Sabatini et al., J. Phys.: Condens. Matter 24, 424209 (2012).   %
     %                                                                      %
     %%%%%%%%%%%%%%%%%%%%%%%%%%%%%%%%%%%%%%%%%%%%%%%%%%%%%%%%%%%%%%%%%%%%%%%%

     Starting wfcs are  732 randomized atomic wfcs

     Self-consistent Calculation

     iteration #  1     ecut=    50.00 Ry     beta= 0.30
     Davidson diagonalization with overlap
     ethr =  1.00E-02,  avg # of iterations =  5.5

[...]

     total energy              =  -18937.80069480 Ry
     Harris-Foulkes estimate   =  -22007.63025320 Ry
     estimated scf accuracy    <    6067.44343896 Ry

[...]

     total energy              =  -21903.76723035 Ry
     Harris-Foulkes estimate   =  -21903.76723035 Ry
     estimated scf accuracy    <       0.00000001 Ry

     iteration # 37     ecut=    50.00 Ry     beta= 0.30
     Davidson diagonalization with overlap
     ethr =  1.27E-12,  avg # of iterations =  2.0

     negative rho (up, down):  2.486E-03 0.000E+00

     End of self-consistent calculation

          k = 0.0000 0.0000 0.0000 ( 61453 PWs)   bands (ev):

  -107.8125-107.8093-107.8054-107.8054-107.8052-107.8047-107.8047-107.8044
  -107.8033-107.8018-107.8018-107.8015-107.8015-107.8008-107.8008-107.8004
  -107.8001-107.8001-107.7961-107.7961-107.7960-107.7948-107.7948-107.7943
  -107.7928-107.7922-107.7922-107.7908-107.7872-107.7860-107.7860-107.7859
  -107.7859-107.7849-107.7836-107.7826-107.5853-107.5812-107.5812-107.5811
  -107.5796-107.5796-107.5762-107.5741-107.5741-107.5519-107.5469-107.5469
  -107.5469-107.5466-107.5466-107.5466-107.5442-107.5442 -65.2661 -65.2539
   -65.2526 -65.2526 -65.2521 -65.2521 -65.2513 -65.2455 -65.2452 -65.2452
   -65.2445 -65.2445 -65.2438 -65.2438 -65.2437 -65.2409 -65.2407 -65.2407
   -65.2403 -65.2387 -65.2337 -65.2337 -65.2330 -65.2320 -65.2316 -65.2316
   -65.2303 -65.2302 -65.2302 -65.2297 -65.2297 -65.2288 -65.2288 -65.2287
   -65.2264 -65.2264 -65.2264 -65.2258 -65.2209 -65.2209 -65.2208 -65.2200
   -65.2198 -65.2198 -65.2192 -65.2192 -65.2156 -65.2156 -65.2153 -65.2129
   -65.2127 -65.2124 -65.2124 -65.2123 -65.2123 -65.2119 -65.2086 -65.2054
   -65.2054 -65.2044 -65.2044 -65.2041 -65.2037 -65.2037 -65.2033 -65.2026
   -65.2026 -65.2026 -65.2013 -65.2006 -65.2006 -65.2006 -65.2006 -65.1978
   -65.1978 -65.1946 -65.1943 -65.1943 -65.1942 -65.1940 -65.1940 -65.1934
   -65.1934 -65.1930 -65.1925 -65.1924 -65.1924 -65.1901 -65.1878 -65.1878
   -65.1875 -65.1869 -65.1869 -65.1869 -65.1866 -65.1866 -65.1810 -65.1810
   -65.1797 -65.1797 -65.1796 -65.1790 -65.1788 -65.1788 -65.1752 -65.1752
   -65.1684 -65.1684 -65.0376 -65.0376 -65.0371 -65.0353 -65.0352 -65.0352
   -65.0331 -65.0319 -65.0319 -65.0296 -65.0063 -65.0061 -65.0061 -65.0061
   -65.0059 -65.0059 -65.0035 -65.0035 -65.0032 -65.0029 -65.0027 -65.0009
   -65.0009 -64.9991 -64.9991 -64.9982 -64.9875 -64.9875 -64.9708 -64.9708
   -64.9707 -64.9707 -64.9707 -64.9704 -64.9629 -64.9595 -64.9595 -64.9590
   -64.9585 -64.9585 -64.9574 -64.9574 -64.9531 -64.9511 -64.9511 -64.9238
   -64.9192 -64.9192 -64.9192 -64.9188 -64.9188 -64.9188 -64.9165 -64.9165
   -12.7463  -9.9977  -9.9975  -6.4021  -6.4016  -4.4763  -4.0770  -3.4583
    -2.8752  -2.5120  -2.4908  -1.8375  -1.8374  -1.3990  -1.1126  -1.1114
    -1.1114  -1.1112  -1.1112  -1.1112  -0.7543  -0.7082  -0.7082  -0.7076
    -0.7076  -0.7076  -0.6746  -0.4431  -0.2107  -0.2093  -0.2093  -0.2081
    -0.2081  -0.2077  -0.1920   0.0975   0.0977   0.2405   0.2405   0.2432
     0.2448   0.2448   0.2477   0.5903   0.5903   0.5931   0.5934   0.5934
     0.5960   0.7188   0.7188   0.7194   0.7197   0.7197   0.7204   0.7681
     0.7681   0.7688   0.7688   0.7689   0.7697   0.7979   0.7979   0.8118
     0.8118   0.8218   0.8218   0.9176   0.9176   0.9265   0.9265   0.9438
     0.9438   0.9449   0.9460   0.9460   0.9471   0.9568   0.9568   0.9579
     0.9579   1.0035   1.0035   1.0500   1.0500   1.1525   1.1525   1.1562
     1.1562   1.1583   1.1586   1.1586   1.1602   1.1946   1.1946   1.3890
     1.3890   1.3949   1.3949   1.3951   1.3968   1.5268   1.5268   1.5352
     1.5352   1.5437   1.5437   1.5488   1.5488   1.5493   1.5502   1.5893
     1.5908   1.5909   1.6079   1.6579   1.6579   1.6623   1.6623   1.6628
     1.6630   1.6749   1.6750   1.7019   1.7019   1.7316   1.7373   1.7373
     1.7385   1.7385   1.7481   1.7481   1.7482   1.7494   1.7882   1.7882
     1.7951   1.7951   1.8002   1.8004   1.8004   1.8009   1.8204   1.8205
     1.8205   1.8212   1.8213   1.8213   1.8272   1.8272   1.8419   1.8737
     1.8737   1.9348   1.9348   1.9472   1.9480   1.9480   1.9508   1.9570
     1.9589   1.9664   1.9664   1.9856   1.9856   1.9982   1.9983   2.0212
     2.0212   2.0216   2.0217   2.0219   2.0225   2.0230   2.0230   2.0473
     2.0473   2.2107   2.2107   2.2109   2.2149   2.2586   2.2586   2.2795
     2.2796   2.2796   2.2803   2.2804   2.2804   2.3393   2.3393   2.3415
     2.3432   2.3574   2.3574   2.3608   2.3608   2.3832   2.3832   2.3884
     2.3884   2.4299   2.4492   2.4492   2.4779   2.4779   2.4813   2.4813
     2.4825   2.4868   2.5002   2.5003   2.5100   2.5101   2.5101   2.5105
     2.5105   2.5108   2.5115   2.5115   2.5172   2.5172   2.5847   2.5847
     2.6500   2.6502   2.6502   2.6506   2.6508   2.6508   2.7057   2.7065
     2.7065   2.7083   2.7100   2.7101   2.7101   2.7105   2.7106   2.7106
     2.7160   2.7160   2.7715   2.7715   2.7781   2.7782   2.7782   2.7789
     2.7789   2.7789   2.7899   2.7900   2.7900   2.7904   2.7905   2.7905
     2.8136   2.8137   2.8137   2.8141   2.8142   2.8142   2.8400   2.8400
[...]
     3.0533   3.0543   3.0544   3.0544   3.8832   3.9789   3.9789   3.9816
     4.0079   4.0244   4.0244   4.4845   5.4007   5.4007   5.4121   5.4390
     5.4679   5.4679   6.9783   6.9784   7.0373   7.1766   7.2834   7.2835
     7.2926   7.4487   7.4489   7.8480   7.8480   7.8481   7.8483   7.8643
     7.8643   8.1801   8.2401   8.2401   8.2617   8.2617   8.4729   8.6529
     8.6551   8.7925   8.8828   8.8828   8.9101   8.9111   9.0162   9.0626
     9.0626   9.2832   9.4725   9.5324   9.5324   9.5393   9.5393   9.8252
     9.8254   9.8764   9.9151   9.9173  10.5585  10.5896  10.6778  10.6778
    10.7088  10.7088  10.8634  10.8634  10.9067  10.9067  10.9576  11.0739
    11.0739  11.1132  11.2426  11.3281  11.3281  11.3576  11.3576  11.3783
    11.4914  11.6509  11.6509  11.7996  11.8329  11.8330  11.8718  11.8719
    11.9163  11.9245  11.9245  11.9572  11.9573  12.0322  12.1293  12.2299
    12.2299  12.2548  12.3120  12.3535  12.3536  12.4766  12.4766  12.7388
    12.8850  12.8878  12.8879  13.0100  13.0100  13.0226  13.0378  13.0477
    13.1268  13.1385

[...]

          k =-0.2500 0.1443 0.0000 ( 61417 PWs)   bands (ev):

[...]

          k = 0.5000-0.2887 0.0000 ( 61408 PWs)   bands (ev):

[...]

          k =-0.5000-0.5774 0.0000 ( 61343 PWs)   bands (ev):

  -107.8116-107.8092-107.8077-107.8069-107.8043-107.8041-107.8039-107.8031
  -107.8030-107.8024-107.8020-107.8019-107.8016-107.8009-107.8007-107.8002
  -107.7998-107.7992-107.7979-107.7973-107.7955-107.7944-107.7942-107.7938
  -107.7928-107.7925-107.7923-107.7898-107.7884-107.7877-107.7860-107.7852
  -107.7848-107.7843-107.7841-107.7827-107.5843-107.5830-107.5818-107.5804
  -107.5794-107.5792-107.5762-107.5742-107.5740-107.5506-107.5491-107.5490
  -107.5462-107.5460-107.5452-107.5451-107.5448-107.5446 -65.2621 -65.2578
   -65.2569 -65.2563 -65.2556 -65.2550 -65.2545 -65.2531 -65.2516 -65.2499
   -65.2495 -65.2485 -65.2458 -65.2443 -65.2436 -65.2432 -65.2431 -65.2407
   -65.2386 -65.2371 -65.2370 -65.2368 -65.2364 -65.2351 -65.2347 -65.2340
   -65.2331 -65.2327 -65.2303 -65.2296 -65.2258 -65.2246 -65.2243 -65.2234
   -65.2211 -65.2208 -65.2202 -65.2198 -65.2194 -65.2171 -65.2162 -65.2159
   -65.2152 -65.2144 -65.2139 -65.2134 -65.2124 -65.2103 -65.2099 -65.2096
   -65.2094 -65.2092 -65.2090 -65.2080 -65.2076 -65.2072 -65.2065 -65.2059
   -65.2054 -65.2042 -65.2039 -65.2037 -65.2035 -65.2030 -65.2015 -65.2005
   -65.2003 -65.2000 -65.1996 -65.1994 -65.1986 -65.1986 -65.1981 -65.1978
   -65.1976 -65.1968 -65.1964 -65.1957 -65.1953 -65.1948 -65.1945 -65.1935
   -65.1927 -65.1925 -65.1923 -65.1921 -65.1919 -65.1918 -65.1916 -65.1914
   -65.1898 -65.1892 -65.1889 -65.1873 -65.1868 -65.1863 -65.1860 -65.1859
   -65.1852 -65.1850 -65.1830 -65.1820 -65.1818 -65.1809 -65.1774 -65.1754
   -65.1753 -65.1716 -65.0499 -65.0485 -65.0462 -65.0394 -65.0363 -65.0346
   -65.0195 -65.0194 -65.0167 -65.0167 -65.0151 -65.0132 -65.0125 -65.0101
   -65.0089 -65.0069 -65.0063 -65.0062 -65.0060 -65.0054 -64.9997 -64.9955
   -64.9945 -64.9906 -64.9866 -64.9846 -64.9837 -64.9837 -64.9780 -64.9779
   -64.9771 -64.9770 -64.9705 -64.9660 -64.9659 -64.9622 -64.9619 -64.9606
   -64.9598 -64.9587 -64.9572 -64.9571 -64.9531 -64.9511 -64.9510 -64.9226
   -64.9213 -64.9211 -64.9185 -64.9183 -64.9175 -64.9175 -64.9172 -64.9169
   -12.7447 -10.0031 -10.0006  -6.4047  -6.3963  -4.4228  -3.4436  -2.8405
    -2.8198  -2.6376  -2.6373  -2.4980  -2.0687  -2.0664  -1.9460  -1.8902
    -1.8720  -1.2226  -1.2065  -0.8845  -0.6400  -0.6264  -0.6194  -0.2772
    -0.2761  -0.2377  -0.2104  -0.0354  -0.0354  -0.0258   0.0382   0.0780
     0.1388   0.1401   0.1592   0.1595   0.1759   0.2254   0.2370   0.2371
     0.2548   0.3535   0.3564   0.3592   0.3595   0.4293   0.4369   0.4965
     0.4981   0.5093   0.5205   0.5488   0.5490   0.5513   0.5694   0.5709
     0.6338   0.6346   0.6639   0.6643   0.6946   0.6946   0.7215   0.7297
     0.7303   0.7950   0.7953   0.8242   0.8450   0.8583   0.8587   0.9303
     0.9339   0.9845   1.0040   1.0046   1.0306   1.0311   1.0903   1.0988
     1.1000   1.1157   1.1160   1.1275   1.1677   1.1941   1.1948   1.2380
     1.2386   1.2636   1.2670   1.2690   1.2710   1.2882   1.2884   1.3447
     1.3461   1.3496   1.3506   1.3551   1.3657   1.3842   1.3856   1.3966
     1.3984   1.4243   1.4269   1.4472   1.4487   1.4503   1.4690   1.4960
     1.5359   1.5418   1.5433   1.5444   1.5455   1.5733   1.5895   1.5944
     1.5971   1.6327   1.6346   1.6359   1.6383   1.6454   1.6683   1.6883
     1.6894   1.7036   1.7037   1.7177   1.7304   1.7428   1.7440   1.7484
     1.7499   1.7675   1.7697   1.7859   1.7864   1.8024   1.8098   1.8153
     1.8302   1.8332   1.8555   1.8602   1.8692   1.8715   1.8796   1.8856
     1.8880   1.8927   1.9013   1.9017   1.9127   1.9156   1.9165   1.9182
     1.9403   1.9482   1.9555   1.9680   1.9770   1.9867   1.9931   1.9949
     2.0064   2.0070   2.0082   2.0122   2.0123   2.0163   2.0184   2.0223
     2.0404   2.0577   2.0916   2.0978   2.1500   2.1503   2.1520   2.1574
     2.1622   2.1670   2.1847   2.1850   2.2086   2.2200   2.2221   2.2302
     2.2507   2.2515   2.2884   2.2915   2.2928   2.3215   2.3226   2.3241
     2.3244   2.3263   2.3281   2.3299   2.3341   2.3427   2.3612   2.3617
     2.4061   2.4101   2.4114   2.4127   2.4190   2.4240   2.4319   2.4552
     2.4602   2.4642   2.4779   2.4999   2.5010   2.5208   2.5278   2.5285
     2.5398   2.5434   2.5730   2.5809   2.5853   2.5884   2.6139   2.6157
     2.6365   2.6416   2.6421   2.6606   2.6632   2.6835   2.6856   2.6874
     2.6895   2.6940   2.7039   2.7047   2.7100   2.7170   2.7251   2.7429
     2.7760   2.7795   2.7805   2.7869   2.8312   2.8318   2.8440   2.8483
     2.8758   2.8875   2.8890   2.8951   2.8958   2.9062   2.9109   2.9392
[...]
     4.2144   4.2358   4.3157   4.3166   4.3308   4.5913   4.6953   4.7100
     4.7227   4.7232   4.8693   5.1660   5.1938   5.1953   5.6428   5.6783
     5.7069   5.7823   5.9331   5.9456   5.9470   6.0784   6.0905   6.1674
     6.2465   6.6114   6.6843   6.6900   6.8582   6.9658   6.9949   7.0677
     7.0708   7.2249   7.2621   7.3939   7.6153   7.7609   7.9103   7.9595
     8.4615   8.5000   8.5008   8.6036   8.7416   8.9853   9.1401   9.1629
     9.2187   9.3184   9.3379   9.4771   9.4955   9.6403   9.6808   9.7165
     9.8028   9.9183  10.0133  10.1203  10.1720  10.3621  10.4254  10.4570
    10.5164  10.6148  10.7236  10.8258  10.8718  11.0623  11.0797  11.1867
    11.2327  11.2552  11.4626  11.4931  11.5033  11.5975  11.6149  11.7078
    11.7256  11.8264  11.8686  11.8814  11.9954  12.0975  12.1305  12.1698
    12.2861  12.3790  12.4301  12.4485  12.5215  12.5666  12.6045  12.6342
    12.7126  12.7556  12.8300  12.8617  12.9426  13.0165  13.1578  13.2152
    13.2924  13.3155  13.3794  13.4280  13.4866  13.5353  13.5509  13.6410
    13.6808  13.6930

     the Fermi energy is     4.6358 ev

!    total energy              =  -21903.76723031 Ry
     Harris-Foulkes estimate   =  -21903.76723035 Ry
     estimated scf accuracy    <          5.1E-09 Ry

     The total energy is the sum of the following terms:

     one-electron contribution = -207545.36447826 Ry
     hartree contribution      =  103976.20334167 Ry
     xc contribution           =   -2143.20725220 Ry
     ewald contribution        =   83808.65383795 Ry
     smearing contrib. (-TS)   =      -0.05267948 Ry

     convergence has been achieved in  37 iterations

     General routines

     Parallel routines

      15h

   This run was terminated on:   5:47: 1  21Nov2019

   JOB DONE.